User:   jngwng01@n716028
Date:   Mon Sep  6 19:49:56 2021
Arch:   x86_64
Pid:    12719
Python: 3.8.5
gpaw:   /uls/7/gpaw-20.1.0/lib/python3.8/site-packages/gpaw-20.1.0-py3.8-linux-x86_64.egg/gpaw
_gpaw:  /uls/7/gpaw-20.1.0/lib/python3.8/site-packages/gpaw-20.1.0-py3.8-linux-x86_64.egg/
        _gpaw.cpython-38-x86_64-linux-gnu.so
ase:    /uls/7/gpaw-20.1.0/lib/python3.8/site-packages/ase-3.20.1-py3.8.egg/ase (version 3.20.1)
numpy:  /uls/7/gpaw-20.1.0/lib/python3.8/site-packages/numpy (version 1.19.2)
scipy:  /uls/7/gpaw-20.1.0/lib/python3.8/site-packages/scipy-1.5.2-py3.8-linux-x86_64.egg/scipy (version 1.5.2)
units:  Angstrom and eV
cores: 32
OMP_NUM_THREADS: 1

Input parameters:
  convergence: {density: 0.0001,
                eigenstates: 1e-07}
  kpts: [5 5 1]
  mode: {ecut: 500.0,
         gammacentered: False,
         name: pw}
  occupations: {name: fermi-dirac,
                width: 0.05}
  random: True
  xc: PBE

System changes: positions, numbers, cell, pbc, initial_charges, initial_magmoms

Initialize ...

Li-setup:
  name: Lithium
  id: 830b4218f175192f93f959cfc0aad614
  Z: 3
  valence: 1
  core: 2
  charge: 0.0
  file: /uls/7/gpaw-20.1.0/setups/gpaw-setups-0.9.20000/Li.PBE.gz
  compensation charges: gauss, rc=0.33, lmax=2
  cutoffs: 1.91(filt), 2.55(core),
  valence states:
                energy  radius
    2s(1.00)    -2.874   1.058
    2p(0.00)    -1.090   1.058
    *s          24.337   1.058

  Using partial waves for Li as LCAO basis

N-setup:
  name: Nitrogen
  id: f7500608b86eaa90eef8b1d9a670dc53
  Z: 7
  valence: 5
  core: 2
  charge: 0.0
  file: /uls/7/gpaw-20.1.0/setups/gpaw-setups-0.9.20000/N.PBE.gz
  compensation charges: gauss, rc=0.18, lmax=2
  cutoffs: 1.11(filt), 0.96(core),
  valence states:
                energy  radius
    2s(2.00)   -18.583   0.603
    2p(3.00)    -7.089   0.529
    *s           8.629   0.603
    *p          20.123   0.529
    *d           0.000   0.577

  Using partial waves for N as LCAO basis

Reference energy: -33644.147259

Spin-paired calculation

Occupation numbers:
  Fermi-Dirac: width=0.0500 eV

Convergence criteria:
  Maximum total energy change: 0.0005 eV / electron
  Maximum integral of absolute density change: 0.0001 electrons
  Maximum integral of absolute eigenstate change: 1e-07 eV^2
  Maximum number of iterations: 333

Symmetries present (total): 1

  ( 1  0  0)
  ( 0  1  0)
  ( 0  0  1)

25 k-points: 5 x 5 x 1 Monkhorst-Pack grid
13 k-points in the irreducible part of the Brillouin zone
       k-points in crystal coordinates                weights
   0:     0.00000000    0.00000000    0.00000000          1/25
   1:     0.00000000    0.20000000    0.00000000          2/25
   2:     0.00000000    0.40000000    0.00000000          2/25
   3:     0.20000000   -0.40000000    0.00000000          2/25
   4:     0.20000000   -0.20000000    0.00000000          2/25
   5:     0.20000000    0.00000000    0.00000000          2/25
   6:     0.20000000    0.20000000    0.00000000          2/25
   7:     0.20000000    0.40000000    0.00000000          2/25
   8:     0.40000000   -0.40000000    0.00000000          2/25
   9:     0.40000000   -0.20000000    0.00000000          2/25
          ...
  12:     0.40000000    0.40000000    0.00000000          2/25

Wave functions: Plane wave expansion
  Cutoff energy: 500.000 eV
  Number of coefficients (min, max): 32263, 32394
  Pulay-stress correction: 0.000000 eV/Ang^3 (de/decut=0.000000)
  Using FFTW library
  ScaLapack parameters: grid=1x1, blocksize=None
  Wavefunction extrapolation:
    Improved wavefunction reuse through dual PAW basis

Eigensolver
   Davidson(niter=2, smin=None, normalize=True)

Densities:
  Coarse grid: 40*40*160 grid
  Fine grid: 80*80*320 grid
  Total Charge: 0.000000

Density mixing:
  Method: separate
  Backend: pulay
  Linear mixing parameter: 0.05
  Mixing with 5 old densities
  Damping of long wave oscillations: 50

Hamiltonian:
  XC and Coulomb potentials evaluated on a 80*80*320 grid
  Using the PBE Exchange-Correlation functional

XC parameters: PBE with 2 nearest neighbor stencil

Total number of cores used: 32
Parallelization over k-points: 8
Domain decomposition: 1 x 1 x 4
                      2 x 2 x 8 (xc only)

Number of atoms: 65
Number of atomic orbitals: 260
Number of bands in calculation: 82
Number of valence electrons: 129
Bands to converge: occupied

... initialized

Initializing position-dependent things.

Density initialized from atomic densities
Creating initial wave functions:
  82 bands from LCAO basis set

                       Li

           Li      Li
              N   Li   N  Li
             Li      Li
              LiN   Li LiN  Li

           Li   Li Li    Li
              N   Li   N  Li
             Li      Li
              LiN   Li LiN  Li

           Li N Li Li  N Li
                  Li      Li
             Li N    Li  N
              Li    Li Li   Li

[...]

                Li       Li

Positions:
   0 Li     1.753189    1.012426    1.530029    ( 0.0000,  0.0000,  0.0000)
   1 Li    -0.000191    4.049369    1.530029    ( 0.0000,  0.0000,  0.0000)
   2 Li     5.259899    1.012426    1.530029    ( 0.0000,  0.0000,  0.0000)
   3 Li     3.506519    4.049369    1.530029    ( 0.0000,  0.0000,  0.0000)
   4 Li     1.753084    1.012487   13.291285    ( 0.0000,  0.0000,  0.0000)
   5 Li    -0.000296    4.049430   13.291285    ( 0.0000,  0.0000,  0.0000)
   6 Li     5.259794    1.012487   13.291285    ( 0.0000,  0.0000,  0.0000)
   7 Li     3.506414    4.049430   13.291285    ( 0.0000,  0.0000,  0.0000)
   8 Li     3.506412    0.000213   15.411652    ( 0.0000,  0.0000,  0.0000)
   9 Li     1.753032    3.037156   15.411652    ( 0.0000,  0.0000,  0.0000)
  10 Li     7.013122    0.000213   15.411652    ( 0.0000,  0.0000,  0.0000)
  11 Li     5.259742    3.037156   15.411652    ( 0.0000,  0.0000,  0.0000)
  12 Li    -0.000315    2.024821   15.411652    ( 0.0000,  0.0000,  0.0000)
  13 Li    -1.753695    5.061764   15.411652    ( 0.0000,  0.0000,  0.0000)
  14 Li     3.506395    2.024821   15.411652    ( 0.0000,  0.0000,  0.0000)
  15 Li     1.753015    5.061764   15.411652    ( 0.0000,  0.0000,  0.0000)
  16 Li     3.506465    0.000182    3.465092    ( 0.0000,  0.0000,  0.0000)
  17 Li     1.753085    3.037125    3.465092    ( 0.0000,  0.0000,  0.0000)
  18 Li     7.013175    0.000182    3.465092    ( 0.0000,  0.0000,  0.0000)
  19 Li     5.259795    3.037125    3.465092    ( 0.0000,  0.0000,  0.0000)
  20 Li    -0.000262    2.024791    3.465092    ( 0.0000,  0.0000,  0.0000)
  21 Li    -1.753642    5.061734    3.465092    ( 0.0000,  0.0000,  0.0000)
  22 Li     3.506448    2.024791    3.465092    ( 0.0000,  0.0000,  0.0000)
  23 Li     1.753068    5.061734    3.465092    ( 0.0000,  0.0000,  0.0000)
  24 Li     1.753084    1.012487    5.431887    ( 0.0000,  0.0000,  0.0000)
  25 Li    -0.000296    4.049430    5.431887    ( 0.0000,  0.0000,  0.0000)
  26 Li     5.259794    1.012487    5.431887    ( 0.0000,  0.0000,  0.0000)
  27 Li     3.506414    4.049430    5.431887    ( 0.0000,  0.0000,  0.0000)
  28 Li     3.506429    0.000182    7.378027    ( 0.0000,  0.0000,  0.0000)
  29 Li     1.753049    3.037125    7.378027    ( 0.0000,  0.0000,  0.0000)
  30 Li     7.013139    0.000182    7.378027    ( 0.0000,  0.0000,  0.0000)
  31 Li     5.259759    3.037125    7.378027    ( 0.0000,  0.0000,  0.0000)
  32 Li    -0.000297    2.024791    7.378027    ( 0.0000,  0.0000,  0.0000)
  33 Li    -1.753677    5.061734    7.378027    ( 0.0000,  0.0000,  0.0000)
  34 Li     3.506413    2.024791    7.378027    ( 0.0000,  0.0000,  0.0000)
  35 Li     1.753033    5.061734    7.378027    ( 0.0000,  0.0000,  0.0000)
  36 Li     1.753084    1.012487    9.352306    ( 0.0000,  0.0000,  0.0000)
  37 Li    -0.000296    4.049430    9.352306    ( 0.0000,  0.0000,  0.0000)
  38 Li     5.259794    1.012487    9.352306    ( 0.0000,  0.0000,  0.0000)
  39 Li     3.506414    4.049430    9.352306    ( 0.0000,  0.0000,  0.0000)
  40 Li     3.506429    0.000182   11.319700    ( 0.0000,  0.0000,  0.0000)
  41 Li     1.753049    3.037125   11.319700    ( 0.0000,  0.0000,  0.0000)
  42 Li     7.013139    0.000182   11.319700    ( 0.0000,  0.0000,  0.0000)
  43 Li     5.259759    3.037125   11.319700    ( 0.0000,  0.0000,  0.0000)
  44 Li    -0.000297    2.024791   11.319700    ( 0.0000,  0.0000,  0.0000)
  45 Li    -1.753677    5.061734   11.319700    ( 0.0000,  0.0000,  0.0000)
  46 Li     3.506413    2.024791   11.319700    ( 0.0000,  0.0000,  0.0000)
  47 Li     1.753033    5.061734   11.319700    ( 0.0000,  0.0000,  0.0000)
  48 N      1.753084    1.012487    3.439048    ( 0.0000,  0.0000,  0.0000)
  49 N     -0.000296    4.049430    3.439048    ( 0.0000,  0.0000,  0.0000)
  50 N      5.259794    1.012487    3.439048    ( 0.0000,  0.0000,  0.0000)
  51 N      3.506414    4.049430    3.439048    ( 0.0000,  0.0000,  0.0000)
  52 N      1.753031    1.012517    7.360963    ( 0.0000,  0.0000,  0.0000)
  53 N     -0.000349    4.049460    7.360963    ( 0.0000,  0.0000,  0.0000)
  54 N      5.259741    1.012517    7.360963    ( 0.0000,  0.0000,  0.0000)
  55 N      3.506361    4.049460    7.360963    ( 0.0000,  0.0000,  0.0000)
  56 N      1.753031    1.012517   11.296051    ( 0.0000,  0.0000,  0.0000)
  57 N     -0.000349    4.049460   11.296051    ( 0.0000,  0.0000,  0.0000)
  58 N      5.259741    1.012517   11.296051    ( 0.0000,  0.0000,  0.0000)
  59 N      3.506361    4.049460   11.296051    ( 0.0000,  0.0000,  0.0000)
  60 N      1.753031    1.012517   15.214673    ( 0.0000,  0.0000,  0.0000)
  61 N     -0.000349    4.049460   15.214673    ( 0.0000,  0.0000,  0.0000)
  62 N      5.259741    1.012517   15.214673    ( 0.0000,  0.0000,  0.0000)
  63 N      3.506361    4.049460   15.214673    ( 0.0000,  0.0000,  0.0000)
  64 Li     3.543059    4.031475   17.224786    ( 0.0000,  0.0000,  0.0000)

Unit cell:
           periodic     x           y           z      points  spacing
  1. axis:    yes    7.013420    0.000000    0.000000    40     0.1518
  2. axis:    yes   -3.506760    6.073886    0.000000    40     0.1518
  3. axis:    yes    0.000000    0.000000   29.936001   160     0.1871

  Lengths:   7.013420   7.013520  29.936001
  Angles:   90.000000  90.000000 120.000000

Effective grid spacing dv^(1/3) = 0.1708

                     log10-error:    total        iterations:
           time      wfs    density  energy       fermi  poisson
iter:   1  19:50:40                -275.642682    4
iter:   2  19:50:58  -0.99  -0.51  -263.037163    5
iter:   3  19:51:15  -0.41  -0.56  -276.243493    37
iter:   4  19:51:33  -1.88  -0.53  -251.528411    34
iter:   5  19:51:51  -2.70  -0.71  -249.393641    3
iter:   6  19:52:09  -1.40  -0.72  -245.344277    5
iter:   7  19:52:28  -1.32  -0.78  -239.096431    27
iter:   8  19:52:46  -1.69  -0.89  -237.706437    32
iter:   9  19:53:04  -2.17  -0.96  -237.021607    34
iter:  10  19:53:22  -1.93  -0.94  -243.199068    34
iter:  11  19:53:40  -1.64  -0.79  -238.854440    33
iter:  12  19:53:54  -1.72  -0.93  -236.970707    3
iter:  13  19:54:12  -2.37  -1.34  -235.760800    5
iter:  14  19:54:30  -3.09  -1.51  -235.589772    2
[...]
iter:  22  19:56:55  -3.42  -1.76  -234.287956    4
iter:  23  19:57:13  -4.08  -2.08  -234.271930    3
iter:  24  19:57:31  -3.69  -2.06  -234.273245    4
iter:  25  19:57:49  -4.16  -2.06  -234.262556    3
iter:  26  19:58:07  -3.79  -2.13  -234.300217    3
iter:  27  19:58:25  -4.13  -2.16  -234.279841    2
iter:  28  19:58:44  -4.31  -2.34  -234.259184    3
iter:  29  19:59:02  -5.16  -2.67  -234.258282    2
iter:  30  19:59:20  -5.14  -2.72  -234.262549    3
iter:  31  19:59:38  -4.91  -2.73  -234.254738    3
iter:  32  19:59:56  -5.86  -2.73  -234.256566    3
iter:  33  20:00:14  -6.31  -3.08  -234.256410    2
iter:  34  20:00:32  -6.11  -3.09  -234.256398    2
iter:  35  20:00:50  -6.28  -3.13  -234.256577    3
iter:  36  20:01:08  -6.87  -3.37  -234.256555    2
iter:  37  20:01:27  -5.99  -3.41  -234.257589    2
iter:  38  20:01:45  -7.33  -3.44  -234.256883    2
iter:  39  20:02:03  -6.56  -3.59  -234.256915    2
iter:  40  20:02:21  -8.04  -3.63  -234.257018    2
iter:  41  20:02:39  -7.03  -3.64  -234.256823    2
iter:  42  20:02:57  -6.96  -3.64  -234.256697    2
iter:  43  20:03:15  -7.19  -3.72  -234.256678    2
iter:  44  20:03:33  -7.47  -3.87  -234.256772    2
iter:  45  20:03:51  -7.29  -4.12  -234.256904    2

Converged after 45 iterations.

Dipole moment: (-1.276040, 2.128112, -11.344348) |e|*Ang

Energy contributions relative to reference atoms: (reference = -33644.147259)

Kinetic:       +260.493464
Potential:     -191.865168
External:        +0.000000
XC:            -301.533789
Entropy (-ST):   -0.090672
Local:           -1.306075
Free energy:   -234.302240
Extrapolated:  -234.256904

Fermi level: -0.27854

Showing only first 2 kpts
 Kpt  Band  Eigenvalues  Occupancy
  0    62     -0.41675    0.07526
  0    63     -0.09104    0.00184
  0    64     -0.09100    0.00184
  0    65      0.23001    0.00000

  1    62     -0.45354    0.15531
  1    63     -0.34160    0.12468
  1    64     -0.21121    0.03303
  1    65      0.36665    0.00000

No gap

Forces in eV/Ang:
  0 Li   -0.00007    0.00005   -0.03769
  1 Li   -0.00007    0.00005   -0.03769
  2 Li   -0.00007    0.00005   -0.03769
  3 Li   -0.00007    0.00005   -0.03771
  4 Li    0.00045   -0.00038    0.02953
  5 Li   -0.00145   -0.00026    0.02954
  6 Li   -0.00039    0.00133    0.02954
  7 Li    0.00078   -0.00038    0.02585
  8 Li   -0.00118    0.00050   -0.05034
  9 Li   -0.27458   -0.15512   -0.35650
 10 Li   -0.00333    0.31713   -0.35973
 11 Li    0.29618   -0.17143   -0.40205
 12 Li   -0.00117    0.00059   -0.05034
 13 Li    0.28766    0.17027   -0.38861
 14 Li   -0.00385   -0.33215   -0.38508
 15 Li   -0.26708    0.15395   -0.34454
 16 Li    0.00001   -0.00012   -0.03429
 17 Li   -0.00006   -0.00015   -0.03438
 18 Li    0.00001   -0.00004   -0.03438
 19 Li    0.00007   -0.00015   -0.03438
 20 Li   -0.00007    0.00007   -0.03429
 21 Li   -0.00001    0.00011   -0.03438
 22 Li   -0.00007   -0.00000   -0.03438
 23 Li   -0.00014    0.00011   -0.03438
 24 Li   -0.00002    0.00001   -0.02787
 25 Li   -0.00002    0.00001   -0.02787
 26 Li   -0.00002    0.00001   -0.02787
 27 Li   -0.00001    0.00001   -0.02813
 28 Li   -0.00007    0.00001    0.01460
 29 Li   -0.00094   -0.00049    0.01357
 30 Li   -0.00007    0.00101    0.01357
 31 Li    0.00079   -0.00049    0.01355
 32 Li   -0.00015    0.00020    0.01460
 33 Li    0.00071    0.00070    0.01355
 34 Li   -0.00015   -0.00080    0.01355
 35 Li   -0.00102    0.00070    0.01358
 36 Li   -0.00007    0.00004    0.00778
 37 Li    0.00000    0.00003    0.00778
 38 Li   -0.00004   -0.00003    0.00778
 39 Li   -0.00012    0.00005    0.00519
 40 Li   -0.00010    0.00003   -0.01486
 41 Li   -0.01156   -0.00666   -0.03015
 42 Li   -0.00003    0.01330   -0.03010
 43 Li    0.01142   -0.00662   -0.02948
 44 Li   -0.00016    0.00020   -0.01486
 45 Li    0.01136    0.00682   -0.02967
 46 Li   -0.00013   -0.01308   -0.02972
 47 Li   -0.01166    0.00684   -0.03035
 48 N    -0.00018    0.00018    0.03791
 49 N    -0.00018    0.00017    0.03791
 50 N    -0.00018    0.00017    0.03791
 51 N    -0.00018    0.00017    0.03818
 52 N    -0.00004   -0.00005    0.04044
 53 N    -0.00006   -0.00005    0.04044
 54 N    -0.00005   -0.00003    0.04044
 55 N    -0.00004   -0.00005    0.04701
 56 N    -0.00013    0.00004    0.02304
 57 N     0.00036    0.00000    0.02308
 58 N     0.00009   -0.00040    0.02307
 59 N    -0.00042    0.00014    0.08953
 60 N     0.00003   -0.00104    0.25047
 61 N    -0.01275   -0.00018    0.25101
 62 N    -0.00560    0.01045    0.25092
 63 N     0.02517   -0.01225    1.79677
 64 Li   -0.04027    0.01974   -0.46085

System changes: positions

[...]

Density initialized from wave functions

[...]

           Li      Li
              N   Li   N  Li
             Li      Li
              LiN   Li LiN  Li

[...]

           Li      Li
              N        N
             Li   Li Li   Li
              LiN   Li LiN   Li

[...]

           Li      Li
             Li        N
                 Li  Li   Li
              LiN   Li LiN   Li

           Li   Li Li  N Li
              N   Li      Li
             Li      Li
              LiN   Li LiN  Li

[...]

           Li      Li
             Li        N
                 Li  Li   Li
              LiN   Li LiN   Li

           Li   Li Li  N Li
              N   Li      Li
             Li      Li
              LiN   Li LiN  Li

           Li N Li Li  N Li
                  Li      Li
             Li N    Li  N
              Li    Li Li   Li
           Li      Li
              N Li     N Li
                  Li      Li
             Li N    Li  N
              Li    Li Li   Li

[...]

           Li      Li
             Li   Li   N  Li
                    Lii
              LiN      LiN   Li

           Li N Li Li  N Li
                  Li      Li
             Li N    Li
              Li    Li LiN  Li

[...]

           Li N Li Li  N Li
                  Li      Li
             Li N    Li  N
              Li    Li Li   Li

[...]

           Li N Li Li  N Li
                  Li      Li
             Li      Li
              LiN   Li LiN  Li

[...]

           Li   Li Li    Li
              N   Li   N  Li
             Li      Li
              LiN   Li LiN  Li

[...]

                       Li

           Li      Li
             Li  Li    N  Li
                    Lii
              LiN      LiN   Li

           Li N Li Li    Li
                  Li   N  Li
             Li N    Li  N
              Li    Li Li   Li

[...]

                       Li
           Li      Li
             Li  Li    N  Li
                    Lii
              LiN      LiN   Li

[...]

System changes: positions

Initializing position-dependent things.

Density initialized from wave functions

                       Li
           Li      Li
             Li  Li    N  Li
                    Lii
              LiN      LiN   Li

           Li N Li Li    Li
                  Li   N  Li
             Li N    Li  N
              Li    Li Li   Li

           Li N Li Li  N Li
                  Li      Li
             Li N    Li  N
              Li    Li Li   Li
           Li      Li
              N Li     N Li
             Li   Li Li   Li
                N        N
              Li    Li Li   Li

                Li       Li

Positions:
   0 Li     1.753189    1.012426    1.530029    ( 0.0000,  0.0000,  0.0000)
   1 Li    -0.000191    4.049369    1.530029    ( 0.0000,  0.0000,  0.0000)
   2 Li     5.259899    1.012426    1.530029    ( 0.0000,  0.0000,  0.0000)
   3 Li     3.506519    4.049369    1.530029    ( 0.0000,  0.0000,  0.0000)
   4 Li     1.747518    1.016649   13.305649    ( 0.0000,  0.0000,  0.0000)
   5 Li     0.009973    4.052539   13.305689    ( 0.0000,  0.0000,  0.0000)
   6 Li     5.261206    1.002395   13.305695    ( 0.0000,  0.0000,  0.0000)
   7 Li     3.495708    4.054746   13.174521    ( 0.0000,  0.0000,  0.0000)
   8 Li     3.501290    0.002772   16.095439    ( 0.0000,  0.0000,  0.0000)
   9 Li     1.679342    2.996170   15.130644    ( 0.0000,  0.0000,  0.0000)
  10 Li     7.011704    0.084815   15.128634    ( 0.0000,  0.0000,  0.0000)
  11 Li     5.335678    2.993238   15.102286    ( 0.0000,  0.0000,  0.0000)
  12 Li    -0.005524    2.027452   16.095437    ( 0.0000,  0.0000,  0.0000)
  13 Li    -1.679316    5.106386   15.110510    ( 0.0000,  0.0000,  0.0000)
  14 Li     3.504898    1.938487   15.112691    ( 0.0000,  0.0000,  0.0000)
  15 Li     1.680627    5.103510   15.138386    ( 0.0000,  0.0000,  0.0000)
  16 Li     3.506465    0.000182    3.465092    ( 0.0000,  0.0000,  0.0000)
  17 Li     1.753085    3.037125    3.465092    ( 0.0000,  0.0000,  0.0000)
  18 Li     7.013175    0.000182    3.465092    ( 0.0000,  0.0000,  0.0000)
  19 Li     5.259795    3.037125    3.465092    ( 0.0000,  0.0000,  0.0000)
  20 Li    -0.000262    2.024791    3.465092    ( 0.0000,  0.0000,  0.0000)
  21 Li    -1.753642    5.061734    3.465092    ( 0.0000,  0.0000,  0.0000)
  22 Li     3.506448    2.024791    3.465092    ( 0.0000,  0.0000,  0.0000)
  23 Li     1.753068    5.061734    3.465092    ( 0.0000,  0.0000,  0.0000)
  24 Li     1.753084    1.012487    5.431887    ( 0.0000,  0.0000,  0.0000)
  25 Li    -0.000296    4.049430    5.431887    ( 0.0000,  0.0000,  0.0000)
  26 Li     5.259794    1.012487    5.431887    ( 0.0000,  0.0000,  0.0000)
  27 Li     3.506414    4.049430    5.431887    ( 0.0000,  0.0000,  0.0000)
  28 Li     3.506429    0.000182    7.378027    ( 0.0000,  0.0000,  0.0000)
  29 Li     1.753049    3.037125    7.378027    ( 0.0000,  0.0000,  0.0000)
  30 Li     7.013139    0.000182    7.378027    ( 0.0000,  0.0000,  0.0000)
  31 Li     5.259759    3.037125    7.378027    ( 0.0000,  0.0000,  0.0000)
  32 Li    -0.000297    2.024791    7.378027    ( 0.0000,  0.0000,  0.0000)
  33 Li    -1.753677    5.061734    7.378027    ( 0.0000,  0.0000,  0.0000)
  34 Li     3.506413    2.024791    7.378027    ( 0.0000,  0.0000,  0.0000)
  35 Li     1.753033    5.061734    7.378027    ( 0.0000,  0.0000,  0.0000)
  36 Li     1.752160    1.013217    9.352965    ( 0.0000,  0.0000,  0.0000)
  37 Li     0.001697    4.049955    9.352912    ( 0.0000,  0.0000,  0.0000)
  38 Li     5.260153    1.010590    9.352933    ( 0.0000,  0.0000,  0.0000)
  39 Li     3.503115    4.051066    9.316796    ( 0.0000,  0.0000,  0.0000)
  40 Li     3.504517    0.001176   11.402364    ( 0.0000,  0.0000,  0.0000)
  41 Li     1.748475    3.035194   11.267110    ( 0.0000,  0.0000,  0.0000)
  42 Li     7.012526    0.005025   11.267279    ( 0.0000,  0.0000,  0.0000)
  43 Li     5.262109    3.035772   11.268554    ( 0.0000,  0.0000,  0.0000)
  44 Li    -0.002215    2.025801   11.402409    ( 0.0000,  0.0000,  0.0000)
  45 Li    -1.751056    5.063980   11.268253    ( 0.0000,  0.0000,  0.0000)
  46 Li     3.505792    2.021341   11.268195    ( 0.0000,  0.0000,  0.0000)
  47 Li     1.748165    5.064561   11.266565    ( 0.0000,  0.0000,  0.0000)
  48 N      1.753084    1.012487    3.439048    ( 0.0000,  0.0000,  0.0000)
  49 N     -0.000296    4.049430    3.439048    ( 0.0000,  0.0000,  0.0000)
  50 N      5.259794    1.012487    3.439048    ( 0.0000,  0.0000,  0.0000)
  51 N      3.506414    4.049430    3.439048    ( 0.0000,  0.0000,  0.0000)
  52 N      1.753031    1.012517    7.360963    ( 0.0000,  0.0000,  0.0000)
  53 N     -0.000349    4.049460    7.360963    ( 0.0000,  0.0000,  0.0000)
  54 N      5.259741    1.012517    7.360963    ( 0.0000,  0.0000,  0.0000)
  55 N      3.506361    4.049460    7.360963    ( 0.0000,  0.0000,  0.0000)
  56 N      1.751748    1.013249   11.309186    ( 0.0000,  0.0000,  0.0000)
  57 N     -0.001032    4.050153   11.309150    ( 0.0000,  0.0000,  0.0000)
  58 N      5.258721    1.012708   11.309166    ( 0.0000,  0.0000,  0.0000)
  59 N      3.504715    4.050317   11.227449    ( 0.0000,  0.0000,  0.0000)
  60 N      1.749441    1.014235   15.288875    ( 0.0000,  0.0000,  0.0000)
  61 N     -0.005295    4.051284   15.289020    ( 0.0000,  0.0000,  0.0000)
  62 N      5.255552    1.015450   15.289002    ( 0.0000,  0.0000,  0.0000)
  63 N      3.506824    4.049311   15.078116    ( 0.0000,  0.0000,  0.0000)
  64 Li     3.554416    4.025927   16.921684    ( 0.0000,  0.0000,  0.0000)

Unit cell:
           periodic     x           y           z      points  spacing
  1. axis:    yes    7.013420    0.000000    0.000000    40     0.1518
  2. axis:    yes   -3.506760    6.073886    0.000000    40     0.1518
  3. axis:    yes    0.000000    0.000000   29.936001   160     0.1871

  Lengths:   7.013420   7.013520  29.936001
  Angles:   90.000000  90.000000 120.000000

Effective grid spacing dv^(1/3) = 0.1708

                     log10-error:    total        iterations:
           time      wfs    density  energy       fermi  poisson
iter:   1  22:52:34  -4.03         -234.900361    3
iter:   2  22:52:52  -4.27  -2.41  -234.965370    3
iter:   3  22:53:10  -4.84  -2.21  -234.902040    3
iter:   4  22:53:29  -5.08  -2.76  -234.895037    3
iter:   5  22:53:47  -5.74  -2.83  -234.897905    3
iter:   6  22:54:05  -6.73  -3.17  -234.896521    2
iter:   7  22:54:23  -6.37  -3.61  -234.896313    2
iter:   8  22:54:41  -6.92  -3.95  -234.896416    2
iter:   9  22:54:59  -7.21  -3.91  -234.896536    2
iter:  10  22:55:17  -7.42  -3.90  -234.896348    2
iter:  11  22:55:36  -8.59  -4.37  -234.896349    2

Converged after 11 iterations.

Dipole moment: (-1.716339, 1.240422, -11.327820) |e|*Ang

Energy contributions relative to reference atoms: (reference = -33644.147259)

Kinetic:       +256.510370
Potential:     -189.897932
External:        +0.000000
XC:            -300.189835
Entropy (-ST):   -0.076366
Local:           -1.280770
Free energy:   -234.934532
Extrapolated:  -234.896349

Fermi level: -0.19718

Showing only first 2 kpts
 Kpt  Band  Eigenvalues  Occupancy
  0    62     -0.55616    0.07994
  0    63      0.02204    0.00099
  0    64      0.02217    0.00098
  0    65      0.22977    0.00002

  1    62     -0.63491    0.15997
  1    63     -0.26026    0.12469
  1    64     -0.08356    0.01495
  1    65      0.41539    0.00000

No gap

Forces in eV/Ang:
  0 Li   -0.00007    0.00005   -0.05279
  1 Li   -0.00007    0.00005   -0.05279
  2 Li   -0.00007    0.00005   -0.05279
  3 Li   -0.00008    0.00005   -0.05261
  4 Li   -0.00119   -0.00009   -0.00186
  5 Li   -0.00891    0.00044   -0.00182
  6 Li   -0.00459    0.00686   -0.00181
  7 Li    0.01060   -0.00518    0.00513
  8 Li   -0.00755    0.00375    0.00589
  9 Li   -0.00767   -0.00156    0.00227
 10 Li   -0.00265    0.00689    0.00163
 11 Li    0.00025   -0.00039   -0.00609
 12 Li   -0.00740    0.00364    0.00589
 13 Li    0.00075    0.00346   -0.00362
 14 Li   -0.00276   -0.00298   -0.00298
 15 Li   -0.00820    0.00451    0.00443
 16 Li    0.00001   -0.00012   -0.04354
 17 Li    0.00006   -0.00008   -0.04353
 18 Li   -0.00000   -0.00018   -0.04354
 19 Li   -0.00004   -0.00009   -0.04365
 20 Li   -0.00007    0.00007   -0.04354
 21 Li   -0.00013    0.00005   -0.04362
 22 Li   -0.00008    0.00013   -0.04361
 23 Li   -0.00002    0.00004   -0.04350
 24 Li   -0.00007    0.00006   -0.05441
 25 Li    0.00022    0.00004   -0.05442
 26 Li    0.00006   -0.00020   -0.05442
 27 Li   -0.00021    0.00010   -0.06109
 28 Li   -0.00057    0.00027    0.00929
 29 Li   -0.00412   -0.00277   -0.00161
 30 Li    0.00034    0.00486   -0.00118
 31 Li    0.00346   -0.00199    0.00382
 32 Li   -0.00062    0.00043    0.00929
 33 Li    0.00375    0.00205    0.00230
 34 Li    0.00023   -0.00416    0.00190
 35 Li   -0.00458    0.00280   -0.00317
 36 Li    0.00142   -0.00151    0.00674
 37 Li   -0.00796   -0.00087    0.00694
 38 Li   -0.00271    0.00694    0.00686
 39 Li    0.00819   -0.00401   -0.03501
 40 Li    0.00209   -0.00100    0.00517
 41 Li    0.01157    0.00727    0.01325
 42 Li   -0.00054   -0.01379    0.01409
 43 Li   -0.01364    0.00783    0.02442
 44 Li    0.00209   -0.00104    0.00518
 45 Li   -0.01339   -0.00712    0.02129
 46 Li   -0.00059    0.01493    0.02045
 47 Li    0.01131   -0.00660    0.01008
 48 N    -0.00015    0.00014    0.09639
 49 N    -0.00032    0.00016    0.09641
 50 N    -0.00022    0.00030    0.09641
 51 N    -0.00006    0.00012    0.08445
 52 N    -0.00068    0.00051    0.09007
 53 N     0.00204    0.00032    0.08998
 54 N     0.00051   -0.00194    0.09002
 55 N    -0.00253    0.00118   -0.04962
 56 N    -0.00230    0.00178   -0.01011
 57 N     0.00502    0.00128   -0.00987
 58 N     0.00094   -0.00479   -0.00988
 59 N    -0.00290    0.00145   -0.03918
 60 N     0.00316    0.00076    0.01434
 61 N     0.02933   -0.00113    0.01459
 62 N     0.01469   -0.02275    0.01459
 63 N    -0.01489    0.00728    0.02371
 64 Li    0.00642   -0.00315    0.01499

Date: Mon Sep  6 22:55:46 2021