User:   jngwng01@n716021
Date:   Mon Sep  6 10:49:13 2021
Arch:   x86_64
Pid:    27255
Python: 3.8.5
gpaw:   /uls/7/gpaw-20.1.0/lib/python3.8/site-packages/gpaw-20.1.0-py3.8-linux-x86_64.egg/gpaw
_gpaw:  /uls/7/gpaw-20.1.0/lib/python3.8/site-packages/gpaw-20.1.0-py3.8-linux-x86_64.egg/
        _gpaw.cpython-38-x86_64-linux-gnu.so
ase:    /uls/7/gpaw-20.1.0/lib/python3.8/site-packages/ase-3.20.1-py3.8.egg/ase (version 3.20.1)
numpy:  /uls/7/gpaw-20.1.0/lib/python3.8/site-packages/numpy (version 1.19.2)
scipy:  /uls/7/gpaw-20.1.0/lib/python3.8/site-packages/scipy-1.5.2-py3.8-linux-x86_64.egg/scipy (version 1.5.2)
units:  Angstrom and eV
cores: 32
OMP_NUM_THREADS: 1

Input parameters:
  convergence: {eigenstates: 1e-08}
  kpts: [5 6 1]
  mode: {ecut: 500.0,
         gammacentered: False,
         name: pw}
  occupations: {name: fermi-dirac,
                width: 0.03}
  random: True
  xc: {backend: libvdwxc,
       libvdwxc_name: vdW-DF-cx,
       name: vdW-DF-cx,
       semilocal_xc: GGA_X_LV_RPW86+LDA_C_PW,
       setup_name: PBE,
       vdwcoef: 1.0}

System changes: positions, numbers, cell, pbc, initial_charges, initial_magmoms

Initialize ...

Li-setup:
  name: Lithium
  id: 830b4218f175192f93f959cfc0aad614
  Z: 3
  valence: 1
  core: 2
  charge: 0.0
  file: /uls/7/gpaw-20.1.0/setups/gpaw-setups-0.9.20000/Li.PBE.gz
  compensation charges: gauss, rc=0.33, lmax=2
  cutoffs: 1.91(filt), 2.55(core),
  valence states:
                energy  radius
    2s(1.00)    -2.874   1.058
    2p(0.00)    -1.090   1.058
    *s          24.337   1.058

  Using partial waves for Li as LCAO basis

N-setup:
  name: Nitrogen
  id: f7500608b86eaa90eef8b1d9a670dc53
  Z: 7
  valence: 5
  core: 2
  charge: 0.0
  file: /uls/7/gpaw-20.1.0/setups/gpaw-setups-0.9.20000/N.PBE.gz
  compensation charges: gauss, rc=0.18, lmax=2
  cutoffs: 1.11(filt), 0.96(core),
  valence states:
                energy  radius
    2s(2.00)   -18.583   0.603
    2p(3.00)    -7.089   0.529
    *s           8.629   0.603
    *p          20.123   0.529
    *d           0.000   0.577

  Using partial waves for N as LCAO basis

Reference energy: -25283.807400

Spin-paired calculation

Occupation numbers:
  Fermi-Dirac: width=0.0300 eV

Convergence criteria:
  Maximum total energy change: 0.0005 eV / electron
  Maximum integral of absolute density change: 0.0001 electrons
  Maximum integral of absolute eigenstate change: 1e-08 eV^2
  Maximum number of iterations: 333

Symmetries present (total): 1

  ( 1  0  0)
  ( 0  1  0)
  ( 0  0  1)

30 k-points: 5 x 6 x 1 Monkhorst-Pack grid
15 k-points in the irreducible part of the Brillouin zone
       k-points in crystal coordinates                weights
   0:     0.00000000    0.08333333    0.00000000          2/30
   1:     0.00000000    0.25000000    0.00000000          2/30
   2:     0.00000000    0.41666667    0.00000000          2/30
   3:     0.20000000   -0.41666667    0.00000000          2/30
   4:     0.20000000   -0.25000000    0.00000000          2/30
   5:     0.20000000   -0.08333333    0.00000000          2/30
   6:     0.20000000    0.08333333    0.00000000          2/30
   7:     0.20000000    0.25000000    0.00000000          2/30
   8:     0.20000000    0.41666667    0.00000000          2/30
   9:     0.40000000   -0.41666667    0.00000000          2/30
          ...
  14:     0.40000000    0.41666667    0.00000000          2/30

Wave functions: Plane wave expansion
  Cutoff energy: 500.000 eV
  Number of coefficients (min, max): 32335, 32478
  Pulay-stress correction: 0.000000 eV/Ang^3 (de/decut=0.000000)
  Using FFTW library
  ScaLapack parameters: grid=1x1, blocksize=None
  Wavefunction extrapolation:
    Improved wavefunction reuse through dual PAW basis

Eigensolver
   Davidson(niter=2, smin=None, normalize=True)

Densities:
  Coarse grid: 40*32*160 grid
  Fine grid: 80*64*320 grid
  Total Charge: 0.000000

Density mixing:
  Method: separate
  Backend: pulay
  Linear mixing parameter: 0.05
  Mixing with 5 old densities
  Damping of long wave oscillations: 50

Hamiltonian:
  XC and Coulomb potentials evaluated on a 80*64*320 grid
  Using the vdW-DF-cx Exchange-Correlation functional

XC parameters: vdW-DF-cx with libvdwxc
  Semilocal: GGA_X_LV_RPW86+LDA_C_PW with 2 nearest neighbor stencil
  Local blocksize: 3 x 64 x 320
  PAW datasets: PBE

Total number of cores used: 32
Parallelization over k-points: 8
Domain decomposition: 1 x 1 x 4
                      2 x 2 x 8 (xc only)

Number of atoms: 49
Number of atomic orbitals: 196
Number of bands in calculation: 63
Number of valence electrons: 97
Bands to converge: occupied

... initialized

Initializing position-dependent things.

Density initialized from atomic densities
Creating initial wave functions:
  63 bands from LCAO basis set

 |   |   N       N Li |
 |   |      Li       Li
 |   | Li       Li N  |
 |   |Li LLi  Li Li   |
 |   |            Li  |
 |Li |   N Li    N    |
 |  Li      Li        |
 |   | Li  N    Li N  |
 |   |Li Li   Li Li   |
 Li  |    Li          |
 |Li |   N Li    N    |
 |  Li      Li        |
 |N  .-Li--N----Li----.
 |  / Li Li   Li Li  /
 Li/      Li        /
 |/i       Li      /

Positions:
   0 Li     1.753389    5.061850    0.000000    ( 0.0000,  0.0000,  0.0000)
   1 Li     0.000000    2.024928    0.000000    ( 0.0000,  0.0000,  0.0000)
   2 Li     3.506756    2.024928    0.000000    ( 0.0000,  0.0000,  0.0000)
   3 Li     5.260124    5.061850    0.000000    ( 0.0000,  0.0000,  0.0000)
   4 Li     1.753389    3.037256    1.946139    ( 0.0000,  0.0000,  0.0000)
   5 Li     0.000000    0.000334    1.946139    ( 0.0000,  0.0000,  0.0000)
   6 Li     3.506756    0.000334    1.946139    ( 0.0000,  0.0000,  0.0000)
   7 Li     5.260124    3.037256    1.946139    ( 0.0000,  0.0000,  0.0000)
   8 Li     1.753367    1.012631    1.946139    ( 0.0000,  0.0000,  0.0000)
   9 Li     0.000000    4.049553    1.946139    ( 0.0000,  0.0000,  0.0000)
  10 Li     3.506735    4.049553    1.946139    ( 0.0000,  0.0000,  0.0000)
  11 Li     5.260103    1.012631    1.946139    ( 0.0000,  0.0000,  0.0000)
  12 Li     1.753389    5.061850    3.920419    ( 0.0000,  0.0000,  0.0000)
  13 Li     0.000000    2.024928    3.920419    ( 0.0000,  0.0000,  0.0000)
  14 Li     3.506756    2.024928    3.920419    ( 0.0000,  0.0000,  0.0000)
  15 Li     5.260124    5.061850    3.920419    ( 0.0000,  0.0000,  0.0000)
  16 Li     1.751737    3.069785    5.870150    ( 0.0000,  0.0000,  0.0000)
  17 Li     0.000294    0.031711    5.948220    ( 0.0000,  0.0000,  0.0000)
  18 Li     3.506682    0.028516    5.818424    ( 0.0000,  0.0000,  0.0000)
  19 Li     5.261695    3.069396    5.869653    ( 0.0000,  0.0000,  0.0000)
  20 Li     1.751467    1.040446    5.883350    ( 0.0000,  0.0000,  0.0000)
  21 Li     0.000338    4.084142    5.918684    ( 0.0000,  0.0000,  0.0000)
  22 Li     3.506682    4.081560    5.827934    ( 0.0000,  0.0000,  0.0000)
  23 Li     5.262021    1.040844    5.883239    ( 0.0000,  0.0000,  0.0000)
  24 Li     1.839887    5.090230    7.931086    ( 0.0000,  0.0000,  0.0000)
  25 Li     0.003210    2.117832    7.886381    ( 0.0000,  0.0000,  0.0000)
  26 Li     3.502282    2.073142    7.789942    ( 0.0000,  0.0000,  0.0000)
  27 Li     5.177281    5.089757    7.926004    ( 0.0000,  0.0000,  0.0000)
  28 Li     1.771460    3.112938    9.736356    ( 0.0000,  0.0000,  0.0000)
  29 Li    -0.000766    0.037815    9.918382    ( 0.0000,  0.0000,  0.0000)
  30 Li     3.509131    0.089140   10.468278    ( 0.0000,  0.0000,  0.0000)
  31 Li     5.241802    3.113652    9.719941    ( 0.0000,  0.0000,  0.0000)
  32 Li     1.795211    1.029556    9.694254    ( 0.0000,  0.0000,  0.0000)
  33 Li    -0.001681    4.108815   10.173661    ( 0.0000,  0.0000,  0.0000)
  34 Li     3.508467    4.097079   10.332235    ( 0.0000,  0.0000,  0.0000)
  35 Li     5.217308    1.028357    9.677826    ( 0.0000,  0.0000,  0.0000)
  36 N      1.753389    5.061910    1.929076    ( 0.0000,  0.0000,  0.0000)
  37 N      0.000000    2.024989    1.929076    ( 0.0000,  0.0000,  0.0000)
  38 N      3.506756    2.024989    1.929076    ( 0.0000,  0.0000,  0.0000)
  39 N      5.260124    5.061910    1.929076    ( 0.0000,  0.0000,  0.0000)
  40 N      1.765542    5.095352    5.870720    ( 0.0000,  0.0000,  0.0000)
  41 N     -0.000013    2.062416    5.868279    ( 0.0000,  0.0000,  0.0000)
  42 N      3.506594    2.059835    5.827200    ( 0.0000,  0.0000,  0.0000)
  43 N      5.248368    5.095360    5.867005    ( 0.0000,  0.0000,  0.0000)
  44 N      1.778030    5.122802    9.922102    ( 0.0000,  0.0000,  0.0000)
  45 N     -0.001494    2.076803    9.829482    ( 0.0000,  0.0000,  0.0000)
  46 N      3.507291    2.084076    9.721342    ( 0.0000,  0.0000,  0.0000)
  47 N      5.236827    5.123024    9.929176    ( 0.0000,  0.0000,  0.0000)
  48 Li     6.993764    1.912974   11.704422    ( 0.0000,  0.0000,  0.0000)

Unit cell:
           periodic     x           y           z      points  spacing
  1. axis:    yes    7.013470    0.000000    0.000000    40     0.1753
  2. axis:    yes    0.000000    6.073843    0.000000    32     0.1898
  3. axis:    yes    0.000000    0.000000   29.936001   160     0.1871

  Lengths:   7.013470   6.073843  29.936001
  Angles:   90.000000  90.000000  90.000000

Effective grid spacing dv^(1/3) = 0.1840

                     log10-error:    total        iterations:
           time      wfs    density  energy       fermi  poisson
iter:   1  10:49:42                -186.949872    3
iter:   2  10:49:53  -0.99  -0.50  -176.800878    32
iter:   3  10:50:04  -0.38  -0.56  -180.491465    33
iter:   4  10:50:15  -1.95  -0.59  -167.255397    33
iter:   5  10:50:26  -2.86  -0.67  -166.529324    4
iter:   6  10:50:37  -1.28  -0.67  -163.636477    5
iter:   7  10:50:47  -1.14  -0.75  -158.260804    32
iter:   8  10:50:58  -1.53  -0.88  -156.117565    31
iter:   9  10:51:09  -2.42  -0.95  -156.372444    4
iter:  10  10:51:20  -2.34  -0.93  -156.994500    3
iter:  11  10:51:31  -0.95  -0.91  -160.865155    6
iter:  12  10:51:41  -1.90  -1.02  -156.871777    4
iter:  13  10:51:52  -2.69  -1.21  -156.528160    5
iter:  14  10:52:03  -2.23  -1.25  -155.085377    30
iter:  15  10:52:14  -3.18  -1.49  -154.956192    3
iter:  16  10:52:25  -3.70  -1.60  -154.949895    4
iter:  17  10:52:36  -2.63  -1.63  -155.617061    24
iter:  18  10:52:46  -2.75  -1.56  -154.981099    5
iter:  19  10:52:57  -3.84  -1.72  -154.944287    3
iter:  20  10:53:08  -3.28  -1.76  -155.004076    4
iter:  21  10:53:19  -3.52  -1.60  -154.895619    31
iter:  22  10:53:29  -4.04  -1.86  -154.864481    4
iter:  23  10:53:40  -3.76  -1.96  -154.870957    4
iter:  24  10:53:51  -3.65  -1.87  -154.845377    4
iter:  25  10:54:02  -3.76  -2.15  -154.847984    2
iter:  26  10:54:13  -3.91  -2.22  -154.851001    3
iter:  27  10:54:24  -4.38  -2.26  -154.852972    3
iter:  28  10:54:34  -5.24  -2.35  -154.850315    3
iter:  29  10:54:45  -4.45  -2.41  -154.848268    3
iter:  30  10:54:56  -4.71  -2.45  -154.852723    4
iter:  31  10:55:07  -4.33  -2.44  -154.849415    3
iter:  32  10:55:18  -5.12  -2.65  -154.849495    3
iter:  33  10:55:29  -5.65  -3.03  -154.849974    3
iter:  34  10:55:39  -5.86  -3.30  -154.849728    2
iter:  35  10:55:50  -5.90  -3.35  -154.850052    2
iter:  36  10:56:01  -6.90  -3.55  -154.850114    2
iter:  37  10:56:12  -6.84  -3.52  -154.850032    2
iter:  38  10:56:23  -7.30  -3.60  -154.849984    2
iter:  39  10:56:33  -6.82  -3.76  -154.849991    2
iter:  40  10:56:44  -7.38  -3.92  -154.849962    2
iter:  41  10:56:55  -7.77  -3.98  -154.849985    2
iter:  42  10:57:06  -7.73  -4.02  -154.849973    1
iter:  43  10:57:17  -7.77  -4.16  -154.849973    2
iter:  44  10:57:27  -8.02  -4.25  -154.849947    2

Converged after 44 iterations.

Dipole moment: (0.306484, -2.547140, 5.648564) |e|*Ang

Energy contributions relative to reference atoms: (reference = -25283.807400)

Kinetic:       +177.076959
Potential:     -129.040763
External:        +0.000000
XC:            -201.821651
Entropy (-ST):   -0.021047
Local:           -1.053969
Free energy:   -154.860471
Extrapolated:  -154.849947

Non-local vdW-DF-cx correlation energy: 15.295087
Semilocal GGA_X_LV_RPW86+LDA_C_PW energy: -1088.555275
(Not including atomic contributions)
Fermi level: -0.94747

Showing only first 2 kpts
 Kpt  Band  Eigenvalues  Occupancy
  0    46     -1.27722    0.13333
  0    47     -0.83815    0.00340
  0    48     -0.75359    0.00021
  0    49     -0.29131    0.00000

  1    46     -1.33031    0.13333
  1    47     -1.12998    0.13303
  1    48     -0.89329    0.01882
  1    49     -0.31392    0.00000

No gap

Forces in eV/Ang:
  0 Li    0.00024    0.00004   -0.10773
  1 Li    0.00000    0.00003   -0.10730
  2 Li   -0.00000   -0.00001   -0.10679
  3 Li   -0.00026    0.00003   -0.10767
  4 Li    0.00311   -0.00002    0.02845
  5 Li   -0.00011    0.00210    0.02768
  6 Li    0.00009    0.00367    0.02745
  7 Li   -0.00336    0.00026    0.02847
  8 Li    0.00355   -0.00014    0.02850
  9 Li   -0.00001   -0.00291    0.02692
 10 Li    0.00036   -0.00430    0.02890
 11 Li   -0.00336   -0.00035    0.02856
 12 Li   -0.07388    0.03462    0.07466
 13 Li    0.00004    0.00729    0.08763
 14 Li   -0.00016    0.02642   -0.14265
 15 Li    0.07413    0.03460    0.06111
 16 Li    0.01726    0.00380    0.00121
 17 Li   -0.00055   -0.02624    0.00635
 18 Li    0.00100    0.05206    0.10533
 19 Li   -0.01674    0.00482    0.00259
 20 Li    0.01351    0.01415    0.00909
 21 Li   -0.00107    0.05241   -0.00833
 22 Li    0.00076   -0.03122    0.10005
 23 Li   -0.01377    0.01308    0.00995
 24 Li    0.09916   -0.01280   -0.01674
 25 Li    0.00643   -0.00454   -0.19104
 26 Li   -0.00101   -0.00533    0.12078
 27 Li   -0.10368   -0.01189    0.01625
 28 Li    0.10828   -0.02007   -0.05234
 29 Li    0.00723   -0.06675   -0.00998
 30 Li   -0.00051    0.24571    0.06386
 31 Li   -0.11146   -0.02023   -0.03191
 32 Li    0.16260    0.07634   -0.04218
 33 Li    0.00672    0.05702    0.14121
 34 Li    0.00000   -0.23235    0.03933
 35 Li   -0.16564    0.07810   -0.02555
 36 N    -0.00003    0.01600   -0.11188
 37 N     0.00021    0.01658   -0.11807
 38 N    -0.00014    0.01477   -0.14077
 39 N    -0.00025    0.01586   -0.11277
 40 N    -0.09317   -0.01110    0.08814
 41 N     0.00199   -0.00755    0.13653
 42 N    -0.00107   -0.01744   -0.01765
 43 N     0.09346   -0.01087    0.11363
 44 N    -0.17458   -0.01871   -0.09395
 45 N     0.00363   -0.01046    0.13276
 46 N    -0.00199    0.00981   -0.08581
 47 N     0.17215   -0.01724   -0.17130
 48 Li   -0.00909   -0.08324   -0.00047

System changes: positions

[...]

Density initialized from wave functions
 |   |   N       N Li |
 |   |      Li       Li
 |   | Li       Li N  |
 |   |Li LLi  Li Li   |
 |   |            Li  |
 |Li |   N Li    N    |
 |  Li      Li        |
 |N  | Li  N    Li    |
 |   |Li Li   Li Li   |
 Li  |    Li          |
 |Li |   N Li    N    |
 |  Li      Li        |
 |N  .-Li--N----Li----.
 |  / Li Li   Li Li  /
 Li/      Li        /
 |/i       Li      /

[...]

Density initialized from wave functions
 |   |   N       N Li |
 |   |      Li       Li
 |   | Li       Li N  |
 |   |Li LLi  Li Li   |
 |   |            Li  |
 |Li |   N Li    N    |
 |  Li      Li        |
 |N  | Li  N    Li    |
 |   |Li Li   Li Li   |
 Li  |    Li          |
 |Li |   N Li    N    |
 |  Li      Li        |
 |N  .-Li--N----Li----.
 |  / Li Li   Li Li  /
 Li/      Li        /
 |/i       Li      /

[...]

Density initialized from wave functions
 |   |   N       N Li |
 |   |      Li       Li
 |   | Li       Li N  |
 |   |Li LLi  Li Li   |
 Li  |                |
 |Li |   N Li    N    |
 |  Li      Li        |
 |N  | Li  N    Li    |
 |   |Li Li   Li Li   |
 Li  |    Li          |
 |Li |   N Li    N    |
 |  Li      Li        |
 |N  .-Li--N----Li----.
 |  / Li Li   Li Li  /
 Li/      Li        /
 |/i       Li      /

[...]

Density initialized from wave functions
 |   |   N       N Li |
 |   |      Li       Li
 |   | Li       Li N  |
 |   |Li LLi  Li Li   |
 Li  |                |
 |Li |   N Li    N    |
 |  Li      Li        |
 |N  | Li  N    Li    |
 |   |Li Li   Li Li   |
 Li  |    Li          |
 |Li |   N Li    N    |
 |  Li      Li        |
 |N  .-Li--N----Li----.
 |  / Li Li   Li Li  /
 Li/      Li        /
 |/i       Li      /

[...]

Density initialized from wave functions
 |   |   N       N Li |
 |   |      Li       Li
 |   | Li       Li N  |
 |   |Li LLi  Li Li   |
 Li  |                |
 |Li |   N Li    N    |
 |   |      Li       Li
 |N  | Li  N    Li    |
 |   |Li Li   Li Li   |
 |   |    Li      Li  |
 |Li |   N Li    N    |
 |  Li      Li        |
 |N  .-Li--N----Li----.
 |  / Li Li   Li Li  /
 Li/      Li        /
 |/i       Li      /

[...]

Density initialized from wave functions
 |   |   N       N Li |
 |  Li      Li        |
 |   | Li       Li N  |
 |   |Li LLi  Li Li   |
 Li  |                |
 |Li |   N Li    N    |
 |   |      Li       Li
 |N  | Li  N    Li    |
 |   |Li Li   Li Li   |
 |   |    Li      Li  |
 |Li |   N Li    N    |
 |  Li      Li        |
 |N  .-Li--N----Li----.
 |  / Li Li   Li Li  /
 Li/      Li        /
 |/i       Li      /

[...]

Density initialized from wave functions
 |   |   N       N Li |
 |  Li      Li        |
 |   | Li       Li N  |
 |   |Li LLi  Li Li   |
 Li  |                |
 |Li |   N Li    N    |
 |   |      Li       Li
 |N  | Li  N    Li    |
 |   |Li Li   Li Li   |
 |   |    Li      Li  |
 |Li |   N Li    N    |
 |  Li      Li        |
 |N  .-Li--N----Li----.
 |  / Li Li   Li Li  /
 Li/      Li        /
 |/i       Li      /

[...]

Density initialized from wave functions
 |   |   N  Li   N Li |
 |  Li                |
 |   | Li       Li N  |
 |   |Li LLi  Li Li   |
 Li  |                |
 |Li |   N Li    N    |
 |   |      Li       Li
 |N  | Li  N    Li    |
 |   |Li Li   Li Li   |
 |   |    Li      Li  |
 |Li |   N Li    N    |
 |  Li      Li        |
 |N  .-Li--N----Li----.
 |  / Li Li   Li Li  /
 Li/      Li        /
 |/i       Li      /

[...]

Density initialized from wave functions
 |  Li   N  Li   N Li |
 |   | Li       Li N  |
 |   |Li LLi  Li Li   |
 Li  |                |
 |Li |   N Li    N    |
 |  Li      Li        |
 |N  | Li  N    Li    |
 |   |LiLi    Li Li   |
 Li  |    Li          |
 |   |   N Li    N Li |
 |  Li      Li        |
 |N  .-Li--N----Li----.
 |  / Li Li   Li Li  /
 Li/      Li        /
 |/i       Li      /

[...]

Density initialized from wave functions
 |  Li   N  Li   N Li |
 |   | Li       Li N  |
 |   |Li LLi  Li Li   |
 |   |            Li  |
 |Li |   N Li    N    |
 |  Li      Li        |
 |N  | Li  N    Li    |
 Li  |LiLi    Li Li   |
 |   |    Li          |
 |   |   N Li    N Li |
 |  Li      Li        |
 |N  .-Li--N----Li----.
 |  / Li Li   Li Li  /
 Li/      Li        /
 |/i       Li      /

[...]

Density initialized from wave functions
 |  Li   N  Li   N Li Li
 |   | Li       Li N  |
 |   |Li LLi  Li Li   |
 |Li |   N Li    N    |
 |  Li      Li        |
 |N  | Li  N    Li    |
 Li  |LiLi    Li Li   |
 |   |    Li          |
 |   |   N Li    N Li |
 |  Li      Li        |
 |N  .-Li--N----Li----.
 |  / Li Li   Li Li  /
 Li/      Li        /
 |/i       Li      /

[...]

Converged after 18 iterations.

Dipole moment: (0.293689, -2.573532, 5.458158) |e|*Ang

Energy contributions relative to reference atoms: (reference = -25283.807400)

Kinetic:       +172.133248
Potential:     -125.746189
External:        +0.000000
XC:            -200.319242
Entropy (-ST):   -0.020480
Local:           -1.032672
Free energy:   -154.985334
Extrapolated:  -154.975094

Non-local vdW-DF-cx correlation energy: 15.244313
Semilocal GGA_X_LV_RPW86+LDA_C_PW energy: -1087.421611
(Not including atomic contributions)
Fermi level: -0.87195

Showing only first 2 kpts
 Kpt  Band  Eigenvalues  Occupancy
  0    46     -1.33272    0.13333
  0    47     -0.77264    0.00470
  0    48     -0.65859    0.00011
  0    49     -0.26249    0.00000

  1    46     -1.35958    0.13333
  1    47     -1.07454    0.13318
  1    48     -0.79447    0.00937
  1    49     -0.25697    0.00000

No gap

Forces in eV/Ang:
  0 Li    0.00058   -0.00135   -0.10977
  1 Li   -0.00004   -0.00082   -0.11732
  2 Li    0.00004   -0.00115   -0.11472
  3 Li   -0.00061   -0.00135   -0.10907
  4 Li    0.00548    0.02127    0.04073
  5 Li   -0.00093    0.01049   -0.02251
  6 Li    0.00086   -0.00438    0.07505
  7 Li   -0.00574    0.02297    0.04071
  8 Li    0.01388    0.00719    0.01744
  9 Li   -0.00070    0.00091    0.01619
 10 Li    0.00100    0.02833    0.08446
 11 Li   -0.01370    0.00534    0.01760
 12 Li    0.05613   -0.05093    0.03857
 13 Li   -0.00426   -0.00931    0.15399
 14 Li    0.00494   -0.04032   -0.15239
 15 Li   -0.05594   -0.05125    0.01187
 16 Li   -0.06659    0.01194   -0.03485
 17 Li   -0.00180    0.05349    0.01184
 18 Li    0.00369   -0.03379   -0.08848
 19 Li    0.06548    0.02631   -0.05338
 20 Li   -0.08000    0.01268   -0.03278
 21 Li   -0.00279   -0.00947   -0.00098
 22 Li    0.00351    0.05673   -0.08817
 23 Li    0.07856   -0.00085   -0.05044
 24 Li   -0.00382    0.04610    0.05530
 25 Li    0.00138    0.03748   -0.13509
 26 Li   -0.00846    0.01491    0.04695
 27 Li    0.01192    0.04277    0.15006
 28 Li    0.00542   -0.00752    0.17738
 29 Li    0.01083   -0.00559   -0.09162
 30 Li    0.00592    0.11350   -0.08654
 31 Li   -0.00885   -0.00545    0.17494
 32 Li    0.04282    0.11701    0.19832
 33 Li    0.00714   -0.08066    0.14521
 34 Li    0.00240   -0.16736   -0.05070
 35 Li   -0.05428    0.11350    0.19388
 36 N    -0.05312    0.04590    0.07687
 37 N     0.00042    0.00778   -0.00951
 38 N    -0.00053    0.02443   -0.08766
 39 N     0.05315    0.04610    0.08057
 40 N     0.07376   -0.00972   -0.04119
 41 N     0.00562   -0.00257   -0.06717
 42 N    -0.00765   -0.02201   -0.05627
 43 N    -0.07231   -0.01091   -0.01800
 44 N    -0.08307   -0.05326    0.01767
 45 N     0.00792    0.00510   -0.20715
 46 N    -0.00820    0.05516   -0.02618
 47 N     0.07425   -0.04796   -0.03788
 48 Li   -0.00400   -0.21994   -0.08898

System changes: positions

Initializing position-dependent things.

Density initialized from wave functions
 |  Li   N  Li   N    Li
 |   |             Li |
 |   | Li       Li N  |
 |   |Li LLi  Li Li   |
 |Li |   N Li    N    |
 |  Li      Li        |
 |N  | Li  N    Li    |
 Li  |Li Li   Li Li   |
 |   |    Li          |
 |   |   N Li    N Li |
 |  Li      Li        |
 |N  .-Li--N----Li----.
 |  / Li Li   Li Li  /
 Li/      Li        /
 |/i       Li      /

Positions:
   0 Li     1.753389    5.061850    0.000000    ( 0.0000,  0.0000,  0.0000)
   1 Li     0.000000    2.024928    0.000000    ( 0.0000,  0.0000,  0.0000)
   2 Li     3.506756    2.024928    0.000000    ( 0.0000,  0.0000,  0.0000)
   3 Li     5.260124    5.061850    0.000000    ( 0.0000,  0.0000,  0.0000)
   4 Li     1.753389    3.037256    1.946139    ( 0.0000,  0.0000,  0.0000)
   5 Li     0.000000    0.000334    1.946139    ( 0.0000,  0.0000,  0.0000)
   6 Li     3.506756    0.000334    1.946139    ( 0.0000,  0.0000,  0.0000)
   7 Li     5.260124    3.037256    1.946139    ( 0.0000,  0.0000,  0.0000)
   8 Li     1.753367    1.012631    1.946139    ( 0.0000,  0.0000,  0.0000)
   9 Li     0.000000    4.049553    1.946139    ( 0.0000,  0.0000,  0.0000)
  10 Li     3.506735    4.049553    1.946139    ( 0.0000,  0.0000,  0.0000)
  11 Li     5.260103    1.012631    1.946139    ( 0.0000,  0.0000,  0.0000)
  12 Li     1.704198    5.119059    3.977325    ( 0.0000,  0.0000,  0.0000)
  13 Li    -0.001199    2.041697    3.933190    ( 0.0000,  0.0000,  0.0000)
  14 Li     3.508011    2.064380    3.929179    ( 0.0000,  0.0000,  0.0000)
  15 Li     5.309658    5.119105    3.979813    ( 0.0000,  0.0000,  0.0000)
  16 Li     1.754494    3.081590    5.861915    ( 0.0000,  0.0000,  0.0000)
  17 Li     0.001032    0.038822    6.143245    ( 0.0000,  0.0000,  0.0000)
  18 Li     3.506199    0.048462    5.945563    ( 0.0000,  0.0000,  0.0000)
  19 Li     5.259758    3.080434    5.870467    ( 0.0000,  0.0000,  0.0000)
  20 Li     1.753208    1.050951    5.897094    ( 0.0000,  0.0000,  0.0000)
  21 Li     0.001042    4.099539    6.067505    ( 0.0000,  0.0000,  0.0000)
  22 Li     3.506112    4.085139    5.941806    ( 0.0000,  0.0000,  0.0000)
  23 Li     5.260985    1.051930    5.904821    ( 0.0000,  0.0000,  0.0000)
  24 Li     1.935694    5.075253    7.983920    ( 0.0000,  0.0000,  0.0000)
  25 Li     0.004606    2.143644    7.893108    ( 0.0000,  0.0000,  0.0000)
  26 Li     3.505691    2.077312    7.787386    ( 0.0000,  0.0000,  0.0000)
  27 Li     5.074654    5.074146    7.976189    ( 0.0000,  0.0000,  0.0000)
  28 Li     1.749839    3.161530    9.602716    ( 0.0000,  0.0000,  0.0000)
  29 Li    -0.000009   -0.018719    9.722791    ( 0.0000,  0.0000,  0.0000)
  30 Li     3.508548    0.159448   10.615658    ( 0.0000,  0.0000,  0.0000)
  31 Li     5.265583    3.163072    9.600566    ( 0.0000,  0.0000,  0.0000)
  32 Li     1.841640    1.041238    9.617223    ( 0.0000,  0.0000,  0.0000)
  33 Li     0.000744    4.144019   10.527206    ( 0.0000,  0.0000,  0.0000)
  34 Li     3.507126    4.061890   10.461700    ( 0.0000,  0.0000,  0.0000)
  35 Li     5.172022    1.039382    9.603827    ( 0.0000,  0.0000,  0.0000)
  36 N      1.753389    5.061910    1.929076    ( 0.0000,  0.0000,  0.0000)
  37 N      0.000000    2.024989    1.929076    ( 0.0000,  0.0000,  0.0000)
  38 N      3.506756    2.024989    1.929076    ( 0.0000,  0.0000,  0.0000)
  39 N      5.260124    5.061910    1.929076    ( 0.0000,  0.0000,  0.0000)
  40 N      1.753695    5.103994    5.973667    ( 0.0000,  0.0000,  0.0000)
  41 N      0.000427    2.070831    5.921420    ( 0.0000,  0.0000,  0.0000)
  42 N      3.507568    2.069128    5.842418    ( 0.0000,  0.0000,  0.0000)
  43 N      5.260217    5.104167    5.972286    ( 0.0000,  0.0000,  0.0000)
  44 N      1.769744    5.149512    9.966481    ( 0.0000,  0.0000,  0.0000)
  45 N     -0.000763    2.080839    9.846381    ( 0.0000,  0.0000,  0.0000)
  46 N      3.509263    2.118754    9.673320    ( 0.0000,  0.0000,  0.0000)
  47 N      5.246791    5.150655    9.976427    ( 0.0000,  0.0000,  0.0000)
  48 Li     6.983281    1.610424   11.654564    ( 0.0000,  0.0000,  0.0000)

Unit cell:
           periodic     x           y           z      points  spacing
  1. axis:    yes    7.013470    0.000000    0.000000    40     0.1753
  2. axis:    yes    0.000000    6.073843    0.000000    32     0.1898
  3. axis:    yes    0.000000    0.000000   29.936001   160     0.1871

  Lengths:   7.013470   6.073843  29.936001
  Angles:   90.000000  90.000000  90.000000

Effective grid spacing dv^(1/3) = 0.1840

                     log10-error:    total        iterations:
           time      wfs    density  energy       fermi  poisson
iter:   1  11:32:20  -2.57         -155.061855    3
iter:   2  11:32:31  -3.17  -1.88  -155.152148    5
iter:   3  11:32:42  -4.03  -1.77  -155.004247    4