User:   jngwng01@n716005
Date:   Mon Sep  6 10:09:36 2021
Arch:   x86_64
Pid:    23341
Python: 3.8.5
gpaw:   /uls/7/gpaw-20.1.0/lib/python3.8/site-packages/gpaw-20.1.0-py3.8-linux-x86_64.egg/gpaw
_gpaw:  /uls/7/gpaw-20.1.0/lib/python3.8/site-packages/gpaw-20.1.0-py3.8-linux-x86_64.egg/
        _gpaw.cpython-38-x86_64-linux-gnu.so
ase:    /uls/7/gpaw-20.1.0/lib/python3.8/site-packages/ase-3.20.1-py3.8.egg/ase (version 3.20.1)
numpy:  /uls/7/gpaw-20.1.0/lib/python3.8/site-packages/numpy (version 1.19.2)
scipy:  /uls/7/gpaw-20.1.0/lib/python3.8/site-packages/scipy-1.5.2-py3.8-linux-x86_64.egg/scipy (version 1.5.2)
units:  Angstrom and eV
cores: 32
OMP_NUM_THREADS: 1

Input parameters:
  convergence: {eigenstates: 1e-08}
  kpts: [5 6 1]
  mode: {ecut: 500.0,
         gammacentered: False,
         name: pw}
  occupations: {name: fermi-dirac,
                width: 0.03}
  random: True
  xc: {backend: libvdwxc,
       libvdwxc_name: vdW-DF-cx,
       name: vdW-DF-cx,
       semilocal_xc: GGA_X_LV_RPW86+LDA_C_PW,
       setup_name: PBE,
       vdwcoef: 1.0}

System changes: positions, numbers, cell, pbc, initial_charges, initial_magmoms

Initialize ...

Li-setup:
  name: Lithium
  id: 830b4218f175192f93f959cfc0aad614
  Z: 3
  valence: 1
  core: 2
  charge: 0.0
  file: /uls/7/gpaw-20.1.0/setups/gpaw-setups-0.9.20000/Li.PBE.gz
  compensation charges: gauss, rc=0.33, lmax=2
  cutoffs: 1.91(filt), 2.55(core),
  valence states:
                energy  radius
    2s(1.00)    -2.874   1.058
    2p(0.00)    -1.090   1.058
    *s          24.337   1.058

  Using partial waves for Li as LCAO basis

N-setup:
  name: Nitrogen
  id: f7500608b86eaa90eef8b1d9a670dc53
  Z: 7
  valence: 5
  core: 2
  charge: 0.0
  file: /uls/7/gpaw-20.1.0/setups/gpaw-setups-0.9.20000/N.PBE.gz
  compensation charges: gauss, rc=0.18, lmax=2
  cutoffs: 1.11(filt), 0.96(core),
  valence states:
                energy  radius
    2s(2.00)   -18.583   0.603
    2p(3.00)    -7.089   0.529
    *s           8.629   0.603
    *p          20.123   0.529
    *d           0.000   0.577

  Using partial waves for N as LCAO basis

Reference energy: -25283.807400

Spin-paired calculation

Occupation numbers:
  Fermi-Dirac: width=0.0300 eV

Convergence criteria:
  Maximum total energy change: 0.0005 eV / electron
  Maximum integral of absolute density change: 0.0001 electrons
  Maximum integral of absolute eigenstate change: 1e-08 eV^2
  Maximum number of iterations: 333

Symmetries present (total): 1

  ( 1  0  0)
  ( 0  1  0)
  ( 0  0  1)

30 k-points: 5 x 6 x 1 Monkhorst-Pack grid
15 k-points in the irreducible part of the Brillouin zone
       k-points in crystal coordinates                weights
   0:     0.00000000    0.08333333    0.00000000          2/30
   1:     0.00000000    0.25000000    0.00000000          2/30
   2:     0.00000000    0.41666667    0.00000000          2/30
   3:     0.20000000   -0.41666667    0.00000000          2/30
   4:     0.20000000   -0.25000000    0.00000000          2/30
   5:     0.20000000   -0.08333333    0.00000000          2/30
   6:     0.20000000    0.08333333    0.00000000          2/30
   7:     0.20000000    0.25000000    0.00000000          2/30
   8:     0.20000000    0.41666667    0.00000000          2/30
   9:     0.40000000   -0.41666667    0.00000000          2/30
          ...
  14:     0.40000000    0.41666667    0.00000000          2/30

Wave functions: Plane wave expansion
  Cutoff energy: 500.000 eV
  Number of coefficients (min, max): 32335, 32478
  Pulay-stress correction: 0.000000 eV/Ang^3 (de/decut=0.000000)
  Using FFTW library
  ScaLapack parameters: grid=1x1, blocksize=None
  Wavefunction extrapolation:
    Improved wavefunction reuse through dual PAW basis

Eigensolver
   Davidson(niter=2, smin=None, normalize=True)

Densities:
  Coarse grid: 40*32*160 grid
  Fine grid: 80*64*320 grid
  Total Charge: 0.000000

Density mixing:
  Method: separate
  Backend: pulay
  Linear mixing parameter: 0.05
  Mixing with 5 old densities
  Damping of long wave oscillations: 50

Hamiltonian:
  XC and Coulomb potentials evaluated on a 80*64*320 grid
  Using the vdW-DF-cx Exchange-Correlation functional

XC parameters: vdW-DF-cx with libvdwxc
  Semilocal: GGA_X_LV_RPW86+LDA_C_PW with 2 nearest neighbor stencil
  Local blocksize: 3 x 64 x 320
  PAW datasets: PBE

Total number of cores used: 32
Parallelization over k-points: 8
Domain decomposition: 1 x 1 x 4
                      2 x 2 x 8 (xc only)

Number of atoms: 49
Number of atomic orbitals: 196
Number of bands in calculation: 63
Number of valence electrons: 97
Bands to converge: occupied

... initialized

Initializing position-dependent things.

Density initialized from atomic densities
Creating initial wave functions:
  63 bands from LCAO basis set

 |   |             Li |
 |   |   N  Li   N   Li
 |   | Li       Li N  |
 |   |Li LLi  Li Li   |
 |   |            Li  |
 |Li |   N Li    N    |
 |   |      Li       Li
 |N  | Li  N    Li    |
 |   |Li Li   Li Li   |
 |   |    Li      Li  |
 |Li |   N Li    N    |
 |  Li      Li        |
 |N  .-Li--N----Li----.
 |  / Li Li   Li Li  /
 Li/      Li        /
 |/i       Li      /

Positions:
   0 Li     1.753389    5.061850    0.000000    ( 0.0000,  0.0000,  0.0000)
   1 Li     0.000000    2.024928    0.000000    ( 0.0000,  0.0000,  0.0000)
   2 Li     3.506756    2.024928    0.000000    ( 0.0000,  0.0000,  0.0000)
   3 Li     5.260124    5.061850    0.000000    ( 0.0000,  0.0000,  0.0000)
   4 Li     1.753389    3.037256    1.946139    ( 0.0000,  0.0000,  0.0000)
   5 Li     0.000000    0.000334    1.946139    ( 0.0000,  0.0000,  0.0000)
   6 Li     3.506756    0.000334    1.946139    ( 0.0000,  0.0000,  0.0000)
   7 Li     5.260124    3.037256    1.946139    ( 0.0000,  0.0000,  0.0000)
   8 Li     1.753367    1.012631    1.946139    ( 0.0000,  0.0000,  0.0000)
   9 Li     0.000000    4.049553    1.946139    ( 0.0000,  0.0000,  0.0000)
  10 Li     3.506735    4.049553    1.946139    ( 0.0000,  0.0000,  0.0000)
  11 Li     5.260103    1.012631    1.946139    ( 0.0000,  0.0000,  0.0000)
  12 Li     1.753389    5.061850    3.920419    ( 0.0000,  0.0000,  0.0000)
  13 Li     0.000000    2.024928    3.920419    ( 0.0000,  0.0000,  0.0000)
  14 Li     3.506756    2.024928    3.920419    ( 0.0000,  0.0000,  0.0000)
  15 Li     5.260124    5.061850    3.920419    ( 0.0000,  0.0000,  0.0000)
  16 Li     1.756645    3.072249    5.956847    ( 0.0000,  0.0000,  0.0000)
  17 Li    -0.000087    0.032989    5.937173    ( 0.0000,  0.0000,  0.0000)
  18 Li     3.506720    0.037027    5.802390    ( 0.0000,  0.0000,  0.0000)
  19 Li     5.256765    3.071606    5.961137    ( 0.0000,  0.0000,  0.0000)
  20 Li     1.756090    1.043788    5.966092    ( 0.0000,  0.0000,  0.0000)
  21 Li    -0.000072    4.086475    5.922318    ( 0.0000,  0.0000,  0.0000)
  22 Li     3.506718    4.077917    5.800655    ( 0.0000,  0.0000,  0.0000)
  23 Li     5.257318    1.044371    5.970621    ( 0.0000,  0.0000,  0.0000)
  24 Li     1.933261    5.087260    7.871540    ( 0.0000,  0.0000,  0.0000)
  25 Li     0.007567    2.093058    7.909969    ( 0.0000,  0.0000,  0.0000)
  26 Li     3.500033    2.057201    7.848932    ( 0.0000,  0.0000,  0.0000)
  27 Li     5.079319    5.086865    7.859649    ( 0.0000,  0.0000,  0.0000)
  28 Li     1.769819    3.098901    9.832550    ( 0.0000,  0.0000,  0.0000)
  29 Li    -0.001642    0.027094    9.802698    ( 0.0000,  0.0000,  0.0000)
  30 Li     3.508236    0.062602   10.315307    ( 0.0000,  0.0000,  0.0000)
  31 Li     5.241739    3.098622    9.815571    ( 0.0000,  0.0000,  0.0000)
  32 Li     1.776695    1.036765    9.801709    ( 0.0000,  0.0000,  0.0000)
  33 Li    -0.002014    4.118300    9.916536    ( 0.0000,  0.0000,  0.0000)
  34 Li     3.507793    4.082454   10.245676    ( 0.0000,  0.0000,  0.0000)
  35 Li     5.234638    1.036967    9.783549    ( 0.0000,  0.0000,  0.0000)
  36 N      1.753389    5.061910    1.929076    ( 0.0000,  0.0000,  0.0000)
  37 N      0.000000    2.024989    1.929076    ( 0.0000,  0.0000,  0.0000)
  38 N      3.506756    2.024989    1.929076    ( 0.0000,  0.0000,  0.0000)
  39 N      5.260124    5.061910    1.929076    ( 0.0000,  0.0000,  0.0000)
  40 N      1.769883    5.097398    5.866423    ( 0.0000,  0.0000,  0.0000)
  41 N      0.000528    2.063101    5.904032    ( 0.0000,  0.0000,  0.0000)
  42 N      3.506277    2.060744    5.876599    ( 0.0000,  0.0000,  0.0000)
  43 N      5.243616    5.097399    5.863736    ( 0.0000,  0.0000,  0.0000)
  44 N      1.775180    5.110904    9.817276    ( 0.0000,  0.0000,  0.0000)
  45 N     -0.001133    2.071675    9.885302    ( 0.0000,  0.0000,  0.0000)
  46 N      3.505445    2.072118    9.768711    ( 0.0000,  0.0000,  0.0000)
  47 N      5.236124    5.110866    9.797749    ( 0.0000,  0.0000,  0.0000)
  48 Li     7.007670    1.997810   11.759479    ( 0.0000,  0.0000,  0.0000)

Unit cell:
           periodic     x           y           z      points  spacing
  1. axis:    yes    7.013470    0.000000    0.000000    40     0.1753
  2. axis:    yes    0.000000    6.073843    0.000000    32     0.1898
  3. axis:    yes    0.000000    0.000000   29.936001   160     0.1871

  Lengths:   7.013470   6.073843  29.936001
  Angles:   90.000000  90.000000  90.000000

Effective grid spacing dv^(1/3) = 0.1840

                     log10-error:    total        iterations:
           time      wfs    density  energy       fermi  poisson
iter:   1  10:10:06                -187.095113    3
iter:   2  10:10:17  -0.99  -0.50  -176.926370    31
iter:   3  10:10:28  -0.38  -0.56  -179.474894    37
iter:   4  10:10:39  -1.94  -0.60  -166.395194    33
iter:   5  10:10:50  -2.84  -0.67  -165.379306    3
iter:   6  10:11:01  -2.21  -0.68  -158.520854    34
iter:   7  10:11:12  -1.67  -0.82  -156.943577    33
iter:   8  10:11:23  -1.54  -0.90  -156.560354    35
iter:   9  10:11:34  -1.89  -0.92  -156.389750    4
iter:  10  10:11:45  -1.65  -1.06  -156.206294    33
iter:  11  10:11:56  -2.07  -1.40  -155.092654    4
iter:  12  10:12:07  -3.13  -1.45  -154.849853    4
iter:  13  10:12:18  -3.25  -1.62  -154.759091    4
iter:  14  10:12:29  -3.16  -1.77  -154.934919    4
iter:  15  10:12:40  -3.15  -1.64  -154.805337    33
iter:  16  10:12:51  -4.00  -1.80  -154.765961    4
iter:  17  10:13:03  -4.49  -2.08  -154.764694    4
iter:  18  10:13:14  -3.75  -2.17  -154.747208    4
iter:  19  10:13:25  -4.32  -2.39  -154.744134    4
iter:  20  10:13:36  -4.28  -2.46  -154.738809    3
iter:  21  10:13:47  -5.29  -2.49  -154.737823    2
iter:  22  10:13:58  -5.67  -2.57  -154.737580    2
iter:  23  10:14:09  -4.60  -2.60  -154.739816    3
iter:  24  10:14:20  -5.13  -2.75  -154.739236    3
iter:  25  10:14:31  -5.94  -2.92  -154.738190    3
iter:  26  10:14:42  -5.95  -3.10  -154.737763    3
iter:  27  10:14:53  -5.46  -3.12  -154.738541    3
iter:  28  10:15:04  -5.78  -3.12  -154.737954    3
iter:  29  10:15:15  -6.42  -3.36  -154.737933    2
iter:  30  10:15:26  -6.78  -3.44  -154.738054    2
iter:  31  10:15:37  -7.31  -3.68  -154.738100    2
iter:  32  10:15:48  -7.08  -3.82  -154.738089    2
iter:  33  10:15:59  -7.82  -3.98  -154.738075    2
iter:  34  10:16:10  -7.95  -4.00  -154.738080    2
iter:  35  10:16:21  -7.97  -4.14  -154.738089    2
iter:  36  10:16:33  -8.64  -4.22  -154.738087    2

Converged after 36 iterations.

Dipole moment: (0.071691, -2.341402, 5.716478) |e|*Ang

Energy contributions relative to reference atoms: (reference = -25283.807400)

Kinetic:       +179.404897
Potential:     -130.537574
External:        +0.000000
XC:            -202.569412
Entropy (-ST):   -0.022638
Local:           -1.024678
Free energy:   -154.749406
Extrapolated:  -154.738087

Non-local vdW-DF-cx correlation energy: 15.305596
Semilocal GGA_X_LV_RPW86+LDA_C_PW energy: -1089.145634
(Not including atomic contributions)
Fermi level: -0.95034

Showing only first 2 kpts
 Kpt  Band  Eigenvalues  Occupancy
  0    46     -1.21933    0.13332
  0    47     -0.85374    0.00512
  0    48     -0.76027    0.00024
  0    49     -0.26632    0.00000

  1    46     -1.31276    0.13333
  1    47     -1.15927    0.13321
  1    48     -0.89988    0.02091
  1    49     -0.30757    0.00000

No gap

Forces in eV/Ang:
  0 Li    0.00035    0.00003   -0.10471
  1 Li    0.00004    0.00003   -0.10404
  2 Li   -0.00004   -0.00002   -0.10426
  3 Li   -0.00037    0.00002   -0.10451
  4 Li    0.00168    0.00308    0.02829
  5 Li   -0.00012    0.00075    0.02663
  6 Li    0.00012   -0.00073    0.02776
  7 Li   -0.00194    0.00349    0.02842
  8 Li    0.00200   -0.00333    0.02877
  9 Li   -0.00002   -0.00140    0.02593
 10 Li    0.00039    0.00012    0.02747
 11 Li   -0.00182   -0.00366    0.02894
 12 Li   -0.08507    0.03198    0.09393
 13 Li   -0.00286    0.01780    0.30732
 14 Li    0.00285    0.02694    0.13947
 15 Li    0.08511    0.03167    0.08491
 16 Li   -0.02245   -0.00203   -0.09601
 17 Li    0.00013   -0.03224   -0.03459
 18 Li    0.00012    0.03002   -0.03423
 19 Li    0.02264   -0.00167   -0.09985
 20 Li   -0.02278    0.00432   -0.09438
 21 Li   -0.00005    0.03607   -0.04222
 22 Li   -0.00005   -0.02675   -0.02639
 23 Li    0.02261    0.00404   -0.09804
 24 Li   -0.06117    0.00487    0.11025
 25 Li   -0.00413    0.01446   -0.02223
 26 Li    0.00304    0.01023    0.08289
 27 Li    0.06530    0.00471    0.12186
 28 Li    0.11020   -0.02804   -0.08086
 29 Li    0.00213    0.03800    0.05095
 30 Li    0.00152    0.08439    0.01740
 31 Li   -0.11134   -0.02836   -0.08193
 32 Li    0.12969    0.03274   -0.08269
 33 Li    0.00190   -0.03429    0.12520
 34 Li    0.00134   -0.04429   -0.01563
 35 Li   -0.13086    0.03278   -0.08247
 36 N    -0.00038    0.01526   -0.13352
 37 N     0.00032    0.01676   -0.12639
 38 N    -0.00033    0.01651   -0.13875
 39 N     0.00013    0.01527   -0.14055
 40 N    -0.05043   -0.00710   -0.00665
 41 N    -0.00060   -0.00819    0.15036
 42 N     0.00056   -0.00994   -0.06089
 43 N     0.05056   -0.00708    0.00113
 44 N    -0.09799   -0.00409    0.11208
 45 N     0.00115   -0.00799    0.00297
 46 N     0.00030    0.00752    0.03225
 47 N     0.09699   -0.00442    0.10470
 48 Li   -0.00823   -0.03817   -0.06571

System changes: positions

[...]

Density initialized from wave functions
 |   |   N         Li |
 |   |      Li   N   Li
 |   | Li       Li N  |
 |   |Li LLi  Li Li   |
 |   |            Li  |
 |Li |   N Li    N    |
 |   |      Li       Li
 |N  | Li  N    Li    |
 |   |Li Li   Li Li   |
 |   |    Li      Li  |
 |Li |   N Li    N    |
 |  Li      Li        |
 |N  .-Li--N----Li----.
 |  / Li Li   Li Li  /
 Li/      Li        /
 |/i       Li      /

[...]

Density initialized from wave functions
 |   |   N         Li |
 |   |      Li   N   Li
 |   | Li       Li N  |
 |   |Li LLi  Li Li   |
 |   |            Li  |
 |Li |   N Li    N    |
 |   |      Li       Li
 |N  | Li  N    Li    |
 |   |Li Li   Li Li   |
 |   |    Li      Li  |
 |Li |   N Li    N    |
 |  Li      Li        |
 |N  .-Li--N----Li----.
 |  / Li Li   Li Li  /
 Li/      Li        /
 |/i       Li      /

[...]

Density initialized from wave functions
 |   |   N       N Li |
 |   |      Li       Li
 |   | Li       Li N  |
 |   |Li LLi  Li Li   |
 |   |            Li  |
 |Li |   N Li    N    |
 |   |      Li       Li
 |N  | Li  N    Li    |
 |   |Li Li   Li Li   |
 |   |    Li      Li  |
 |Li |   N Li    N    |
 |  Li      Li        |
 |N  .-Li--N----Li----.
 |  / Li Li   Li Li  /
 Li/      Li        /
 |/i       Li      /

[...]

Density initialized from wave functions
 |   |   N       N Li |
 |   |      Li       Li
 |   | Li       Li N  |
 |   |Li LLi  Li Li   |
 |   |            Li  |
 |Li |   N Li    N    |
 |   |      Li       Li
 |N  | Li  N    Li    |
 |   |Li Li   Li Li   |
 |   |    Li      Li  |
 |Li |   N Li    N    |
 |  Li      Li        |
 |N  .-Li--N----Li----.
 |  / Li Li   Li Li  /
 Li/      Li        /
 |/i       Li      /

[...]

Density initialized from wave functions
 |   |   N       N Li |
 |   |      Li       Li
 |   | Li       Li N  |
 |   |Li LLi  Li Li   |
 |   |            Li  |
 |Li |   N Li    N    |
 |  Li      Li        |
 |N  | Li  N    Li    |
 |   |Li Li   Li Li   |
 Li  |    Li          |
 |Li |   N Li    N    |
 |  Li      Li        |
 |N  .-Li--N----Li----.
 |  / Li Li   Li Li  /
 Li/      Li        /
 |/i       Li      /

[...]

Density initialized from wave functions
 |   |   N       N Li |
 |   |      Li       Li
 |   | Li       Li N  |
 |   |Li LLi  Li Li   |
 |   |            Li  |
 |Li |   N Li    N    |
 |  Li      Li        |
 |N  | Li  N    Li    |
 |   |Li Li   Li Li   |
 Li  |    Li          |
 |Li |   N Li    N    |
 |  Li      Li        |
 |N  .-Li--N----Li----.
 |  / Li Li   Li Li  /
 Li/      Li        /
 |/i       Li      /

[...]

Density initialized from wave functions
 |   |   N       N Li |
 |   |      Li       Li
 |   | Li       Li N  |
 |   |Li LLi  Li Li   |
 |   |            Li  |
 |Li |   N Li    N    |
 |  Li      Li        |
 |   | Li  N    Li N  |
 |   |Li Li   Li Li   |
 Li  |    Li          |
 |Li |   N Li    N    |
 |  Li      Li        |
 |N  .-Li--N----Li----.
 |  / Li Li   Li Li  /
 Li/      Li        /
 |/i       Li      /

[...]

Converged after 15 iterations.

Dipole moment: (0.306505, -2.546988, 5.648641) |e|*Ang

Energy contributions relative to reference atoms: (reference = -25283.807400)

Kinetic:       +177.121216
Potential:     -129.103953
External:        +0.000000
XC:            -201.819509
Entropy (-ST):   -0.021028
Local:           -1.037202
Free energy:   -154.860475
Extrapolated:  -154.849961

Non-local vdW-DF-cx correlation energy: 15.294802
Semilocal GGA_X_LV_RPW86+LDA_C_PW energy: -1088.556573
(Not including atomic contributions)
Fermi level: -0.94736

Showing only first 2 kpts
 Kpt  Band  Eigenvalues  Occupancy
  0    46     -1.27720    0.13333
  0    47     -0.83812    0.00341
  0    48     -0.75350    0.00021
  0    49     -0.29104    0.00000

  1    46     -1.33036    0.13333
  1    47     -1.12996    0.13303
  1    48     -0.89320    0.01883
  1    49     -0.31367    0.00000

No gap

Forces in eV/Ang:
  0 Li    0.00018    0.00002   -0.10795
  1 Li   -0.00001    0.00006   -0.10761
  2 Li    0.00001    0.00000   -0.10703
  3 Li   -0.00021    0.00001   -0.10790
  4 Li    0.00301    0.00005    0.02864
  5 Li   -0.00013    0.00200    0.02795
  6 Li    0.00011    0.00370    0.02751
  7 Li   -0.00326    0.00030    0.02867
  8 Li    0.00343   -0.00018    0.02869
  9 Li   -0.00003   -0.00284    0.02716
 10 Li    0.00038   -0.00437    0.02900
 11 Li   -0.00325   -0.00036    0.02877
 12 Li   -0.07419    0.03457    0.07487
 13 Li    0.00004    0.00728    0.08719
 14 Li   -0.00016    0.02647   -0.14277
 15 Li    0.07443    0.03456    0.06132
 16 Li    0.01714    0.00395    0.00127
 17 Li   -0.00053   -0.02647    0.00649
 18 Li    0.00099    0.05202    0.10575
 19 Li   -0.01662    0.00501    0.00261
 20 Li    0.01341    0.01406    0.00914
 21 Li   -0.00105    0.05265   -0.00808
 22 Li    0.00074   -0.03115    0.10038
 23 Li   -0.01368    0.01294    0.00997
 24 Li    0.09898   -0.01280   -0.01612
 25 Li    0.00645   -0.00448   -0.19116
 26 Li   -0.00105   -0.00547    0.12091
 27 Li   -0.10353   -0.01190    0.01697
 28 Li    0.10798   -0.02028   -0.05356
 29 Li    0.00726   -0.06659   -0.01012
 30 Li   -0.00053    0.24643    0.06362
 31 Li   -0.11116   -0.02036   -0.03317
 32 Li    0.16219    0.07650   -0.04319
 33 Li    0.00675    0.05719    0.14138
 34 Li   -0.00001   -0.23285    0.03868
 35 Li   -0.16524    0.07818   -0.02660
 36 N    -0.00047    0.01587   -0.11228
 37 N     0.00013    0.01684   -0.11617
 38 N    -0.00006    0.01473   -0.14100
 39 N     0.00018    0.01572   -0.11285
 40 N    -0.09236   -0.01142    0.08645
 41 N     0.00220   -0.00895    0.14771
 42 N    -0.00120   -0.01734   -0.01462
 43 N     0.09258   -0.01121    0.11139
 44 N    -0.18023   -0.01967   -0.08594
 45 N     0.00334   -0.00869    0.13282
 46 N    -0.00211    0.00670   -0.07282
 47 N     0.17758   -0.01823   -0.16520
 48 Li   -0.00909   -0.08345   -0.00076

System changes: positions

Initializing position-dependent things.

Density initialized from wave functions
 |   |   N       N Li |
 |   |      Li       Li
 |   | Li       Li N  |
 |   |Li LLi  Li Li   |
 |   |            Li  |
 |Li |   N Li    N    |
 |  Li      Li        |
 |   | Li  N    Li N  |
 |   |Li Li   Li Li   |
 Li  |    Li          |
 |Li |   N Li    N    |
 |  Li      Li        |
 |N  .-Li--N----Li----.
 |  / Li Li   Li Li  /
 Li/      Li        /
 |/i       Li      /

Positions:
   0 Li     1.753389    5.061850    0.000000    ( 0.0000,  0.0000,  0.0000)
   1 Li     0.000000    2.024928    0.000000    ( 0.0000,  0.0000,  0.0000)
   2 Li     3.506756    2.024928    0.000000    ( 0.0000,  0.0000,  0.0000)
   3 Li     5.260124    5.061850    0.000000    ( 0.0000,  0.0000,  0.0000)
   4 Li     1.753389    3.037256    1.946139    ( 0.0000,  0.0000,  0.0000)
   5 Li     0.000000    0.000334    1.946139    ( 0.0000,  0.0000,  0.0000)
   6 Li     3.506756    0.000334    1.946139    ( 0.0000,  0.0000,  0.0000)
   7 Li     5.260124    3.037256    1.946139    ( 0.0000,  0.0000,  0.0000)
   8 Li     1.753367    1.012631    1.946139    ( 0.0000,  0.0000,  0.0000)
   9 Li     0.000000    4.049553    1.946139    ( 0.0000,  0.0000,  0.0000)
  10 Li     3.506735    4.049553    1.946139    ( 0.0000,  0.0000,  0.0000)
  11 Li     5.260103    1.012631    1.946139    ( 0.0000,  0.0000,  0.0000)
  12 Li     1.753389    5.061850    3.920419    ( 0.0000,  0.0000,  0.0000)
  13 Li     0.000000    2.024928    3.920419    ( 0.0000,  0.0000,  0.0000)
  14 Li     3.506756    2.024928    3.920419    ( 0.0000,  0.0000,  0.0000)
  15 Li     5.260124    5.061850    3.920419    ( 0.0000,  0.0000,  0.0000)
  16 Li     1.754749    3.069449    5.858702    ( 0.0000,  0.0000,  0.0000)
  17 Li     0.000410    0.031743    5.953746    ( 0.0000,  0.0000,  0.0000)
  18 Li     3.506625    0.028087    5.829464    ( 0.0000,  0.0000,  0.0000)
  19 Li     5.258704    3.069012    5.857394    ( 0.0000,  0.0000,  0.0000)
  20 Li     1.754431    1.040167    5.872971    ( 0.0000,  0.0000,  0.0000)
  21 Li     0.000447    4.084160    5.920948    ( 0.0000,  0.0000,  0.0000)
  22 Li     3.506621    4.081690    5.840663    ( 0.0000,  0.0000,  0.0000)
  23 Li     5.259074    1.040612    5.872048    ( 0.0000,  0.0000,  0.0000)
  24 Li     1.828355    5.089908    7.934621    ( 0.0000,  0.0000,  0.0000)
  25 Li     0.002922    2.122238    7.869287    ( 0.0000,  0.0000,  0.0000)
  26 Li     3.502435    2.075699    7.776101    ( 0.0000,  0.0000,  0.0000)
  27 Li     5.189367    5.089476    7.932456    ( 0.0000,  0.0000,  0.0000)
  28 Li     1.770291    3.117103    9.719431    ( 0.0000,  0.0000,  0.0000)
  29 Li    -0.000371    0.028661    9.941179    ( 0.0000,  0.0000,  0.0000)
  30 Li     3.509180    0.102409   10.505437    ( 0.0000,  0.0000,  0.0000)
  31 Li     5.243238    3.117996    9.704185    ( 0.0000,  0.0000,  0.0000)
  32 Li     1.798326    1.029259    9.675351    ( 0.0000,  0.0000,  0.0000)
  33 Li    -0.001398    4.117533   10.227831    ( 0.0000,  0.0000,  0.0000)
  34 Li     3.508489    4.090049   10.355636    ( 0.0000,  0.0000,  0.0000)
  35 Li     5.214332    1.027872    9.660114    ( 0.0000,  0.0000,  0.0000)
  36 N      1.753389    5.061910    1.929076    ( 0.0000,  0.0000,  0.0000)
  37 N      0.000000    2.024989    1.929076    ( 0.0000,  0.0000,  0.0000)
  38 N      3.506756    2.024989    1.929076    ( 0.0000,  0.0000,  0.0000)
  39 N      5.260124    5.061910    1.929076    ( 0.0000,  0.0000,  0.0000)
  40 N      1.761645    5.094891    5.877094    ( 0.0000,  0.0000,  0.0000)
  41 N     -0.000076    2.062459    5.854589    ( 0.0000,  0.0000,  0.0000)
  42 N      3.506643    2.059496    5.819953    ( 0.0000,  0.0000,  0.0000)
  43 N      5.252409    5.094919    5.873915    ( 0.0000,  0.0000,  0.0000)
  44 N      1.774454    5.124937    9.929922    ( 0.0000,  0.0000,  0.0000)
  45 N     -0.001517    2.078264    9.827096    ( 0.0000,  0.0000,  0.0000)
  46 N      3.507648    2.086304    9.701553    ( 0.0000,  0.0000,  0.0000)
  47 N      5.241137    5.125328    9.939475    ( 0.0000,  0.0000,  0.0000)
  48 Li     6.990881    1.893455   11.695697    ( 0.0000,  0.0000,  0.0000)

Unit cell:
           periodic     x           y           z      points  spacing
  1. axis:    yes    7.013470    0.000000    0.000000    40     0.1753
  2. axis:    yes    0.000000    6.073843    0.000000    32     0.1898
  3. axis:    yes    0.000000    0.000000   29.936001   160     0.1871

  Lengths:   7.013470   6.073843  29.936001
  Angles:   90.000000  90.000000  90.000000

Effective grid spacing dv^(1/3) = 0.1840

                     log10-error:    total        iterations:
           time      wfs    density  energy       fermi  poisson
iter:   1  10:44:50  -2.60         -154.873977    4