User:   jngwng01@n716006
Date:   Mon Sep  6 11:33:39 2021
Arch:   x86_64
Pid:    31310
Python: 3.8.5
gpaw:   /uls/7/gpaw-20.1.0/lib/python3.8/site-packages/gpaw-20.1.0-py3.8-linux-x86_64.egg/gpaw
_gpaw:  /uls/7/gpaw-20.1.0/lib/python3.8/site-packages/gpaw-20.1.0-py3.8-linux-x86_64.egg/
        _gpaw.cpython-38-x86_64-linux-gnu.so
ase:    /uls/7/gpaw-20.1.0/lib/python3.8/site-packages/ase-3.20.1-py3.8.egg/ase (version 3.20.1)
numpy:  /uls/7/gpaw-20.1.0/lib/python3.8/site-packages/numpy (version 1.19.2)
scipy:  /uls/7/gpaw-20.1.0/lib/python3.8/site-packages/scipy-1.5.2-py3.8-linux-x86_64.egg/scipy (version 1.5.2)
units:  Angstrom and eV
cores: 32
OMP_NUM_THREADS: 1

Input parameters:
  convergence: {eigenstates: 1e-07}
  kpts: [5 6 1]
  mode: {ecut: 500.0,
         gammacentered: False,
         name: pw}
  occupations: {name: fermi-dirac,
                width: 0.03}
  random: True
  xc: {backend: libvdwxc,
       libvdwxc_name: vdW-DF-cx,
       name: vdW-DF-cx,
       semilocal_xc: GGA_X_LV_RPW86+LDA_C_PW,
       setup_name: PBE,
       vdwcoef: 1.0}

System changes: positions, numbers, cell, pbc, initial_charges, initial_magmoms

Initialize ...

Li-setup:
  name: Lithium
  id: 830b4218f175192f93f959cfc0aad614
  Z: 3
  valence: 1
  core: 2
  charge: 0.0
  file: /uls/7/gpaw-20.1.0/setups/gpaw-setups-0.9.20000/Li.PBE.gz
  compensation charges: gauss, rc=0.33, lmax=2
  cutoffs: 1.91(filt), 2.55(core),
  valence states:
                energy  radius
    2s(1.00)    -2.874   1.058
    2p(0.00)    -1.090   1.058
    *s          24.337   1.058

  Using partial waves for Li as LCAO basis

N-setup:
  name: Nitrogen
  id: f7500608b86eaa90eef8b1d9a670dc53
  Z: 7
  valence: 5
  core: 2
  charge: 0.0
  file: /uls/7/gpaw-20.1.0/setups/gpaw-setups-0.9.20000/N.PBE.gz
  compensation charges: gauss, rc=0.18, lmax=2
  cutoffs: 1.11(filt), 0.96(core),
  valence states:
                energy  radius
    2s(2.00)   -18.583   0.603
    2p(3.00)    -7.089   0.529
    *s           8.629   0.603
    *p          20.123   0.529
    *d           0.000   0.577

  Using partial waves for N as LCAO basis

Reference energy: -25283.807400

Spin-paired calculation

Occupation numbers:
  Fermi-Dirac: width=0.0300 eV

Convergence criteria:
  Maximum total energy change: 0.0005 eV / electron
  Maximum integral of absolute density change: 0.0001 electrons
  Maximum integral of absolute eigenstate change: 1e-07 eV^2
  Maximum number of iterations: 333

Symmetries present (total): 1

  ( 1  0  0)
  ( 0  1  0)
  ( 0  0  1)

30 k-points: 5 x 6 x 1 Monkhorst-Pack grid
15 k-points in the irreducible part of the Brillouin zone
       k-points in crystal coordinates                weights
   0:     0.00000000    0.08333333    0.00000000          2/30
   1:     0.00000000    0.25000000    0.00000000          2/30
   2:     0.00000000    0.41666667    0.00000000          2/30
   3:     0.20000000   -0.41666667    0.00000000          2/30
   4:     0.20000000   -0.25000000    0.00000000          2/30
   5:     0.20000000   -0.08333333    0.00000000          2/30
   6:     0.20000000    0.08333333    0.00000000          2/30
   7:     0.20000000    0.25000000    0.00000000          2/30
   8:     0.20000000    0.41666667    0.00000000          2/30
   9:     0.40000000   -0.41666667    0.00000000          2/30
          ...
  14:     0.40000000    0.41666667    0.00000000          2/30

Wave functions: Plane wave expansion
  Cutoff energy: 500.000 eV
  Number of coefficients (min, max): 32335, 32478
  Pulay-stress correction: 0.000000 eV/Ang^3 (de/decut=0.000000)
  Using FFTW library
  ScaLapack parameters: grid=1x1, blocksize=None
  Wavefunction extrapolation:
    Improved wavefunction reuse through dual PAW basis

Eigensolver
   Davidson(niter=2, smin=None, normalize=True)

Densities:
  Coarse grid: 40*32*160 grid
  Fine grid: 80*64*320 grid
  Total Charge: 0.000000

Density mixing:
  Method: separate
  Backend: pulay
  Linear mixing parameter: 0.05
  Mixing with 5 old densities
  Damping of long wave oscillations: 50

Hamiltonian:
  XC and Coulomb potentials evaluated on a 80*64*320 grid
  Using the vdW-DF-cx Exchange-Correlation functional

XC parameters: vdW-DF-cx with libvdwxc
  Semilocal: GGA_X_LV_RPW86+LDA_C_PW with 2 nearest neighbor stencil
  Local blocksize: 3 x 64 x 320
  PAW datasets: PBE

Total number of cores used: 32
Parallelization over k-points: 8
Domain decomposition: 1 x 1 x 4
                      2 x 2 x 8 (xc only)

Number of atoms: 49
Number of atomic orbitals: 196
Number of bands in calculation: 63
Number of valence electrons: 97
Bands to converge: occupied

... initialized

Initializing position-dependent things.

Density initialized from atomic densities
Creating initial wave functions:
  63 bands from LCAO basis set

 |  Li   N  Li   N Li Li
 |   | Li       Li N  |
 |   |Li LLi  Li Li   |
 |Li |   N Li    N    |
 |  Li      Li        |
 |N  | Li  N    Li    |
 Li  |LiLi    Li Li   |
 |   |    Li          |
 |   |   N Li    N Li |
 |  Li      Li        |
 |N  .-Li--N----Li----.
 |  / Li Li   Li Li  /
 Li/      Li        /
 |/i       Li      /

Positions:
   0 Li     1.753389    5.061850    0.000000    ( 0.0000,  0.0000,  0.0000)
   1 Li     0.000000    2.024928    0.000000    ( 0.0000,  0.0000,  0.0000)
   2 Li     3.506756    2.024928    0.000000    ( 0.0000,  0.0000,  0.0000)
   3 Li     5.260124    5.061850    0.000000    ( 0.0000,  0.0000,  0.0000)
   4 Li     1.753389    3.037256    1.946139    ( 0.0000,  0.0000,  0.0000)
   5 Li     0.000000    0.000334    1.946139    ( 0.0000,  0.0000,  0.0000)
   6 Li     3.506756    0.000334    1.946139    ( 0.0000,  0.0000,  0.0000)
   7 Li     5.260124    3.037256    1.946139    ( 0.0000,  0.0000,  0.0000)
   8 Li     1.753367    1.012631    1.946139    ( 0.0000,  0.0000,  0.0000)
   9 Li     0.000000    4.049553    1.946139    ( 0.0000,  0.0000,  0.0000)
  10 Li     3.506735    4.049553    1.946139    ( 0.0000,  0.0000,  0.0000)
  11 Li     5.260103    1.012631    1.946139    ( 0.0000,  0.0000,  0.0000)
  12 Li     1.701790    5.116474    3.974777    ( 0.0000,  0.0000,  0.0000)
  13 Li    -0.000800    2.040568    3.935990    ( 0.0000,  0.0000,  0.0000)
  14 Li     3.507572    2.063046    3.928750    ( 0.0000,  0.0000,  0.0000)
  15 Li     5.312015    5.116541    3.978528    ( 0.0000,  0.0000,  0.0000)
  16 Li     1.755207    3.079611    5.865636    ( 0.0000,  0.0000,  0.0000)
  17 Li     0.000778    0.037564    6.118823    ( 0.0000,  0.0000,  0.0000)
  18 Li     3.506364    0.045598    5.941914    ( 0.0000,  0.0000,  0.0000)
  19 Li     5.259032    3.078176    5.874115    ( 0.0000,  0.0000,  0.0000)
  20 Li     1.754420    1.049262    5.898512    ( 0.0000,  0.0000,  0.0000)
  21 Li     0.000821    4.097029    6.048368    ( 0.0000,  0.0000,  0.0000)
  22 Li     3.506322    4.084444    5.939535    ( 0.0000,  0.0000,  0.0000)
  23 Li     5.259794    1.050527    5.906252    ( 0.0000,  0.0000,  0.0000)
  24 Li     1.929117    5.074625    7.972954    ( 0.0000,  0.0000,  0.0000)
  25 Li     0.004695    2.137738    7.901021    ( 0.0000,  0.0000,  0.0000)
  26 Li     3.505566    2.075721    7.782462    ( 0.0000,  0.0000,  0.0000)
  27 Li     5.081448    5.073809    7.962403    ( 0.0000,  0.0000,  0.0000)
  28 Li     1.747531    3.156606    9.608905    ( 0.0000,  0.0000,  0.0000)
  29 Li    -0.000165   -0.000022    9.748636    ( 0.0000,  0.0000,  0.0000)
  30 Li     3.508364    0.152004   10.605951    ( 0.0000,  0.0000,  0.0000)
  31 Li     5.267816    3.157769    9.606444    ( 0.0000,  0.0000,  0.0000)
  32 Li     1.832358    1.034791    9.614551    ( 0.0000,  0.0000,  0.0000)
  33 Li     0.000490    4.132960   10.484947    ( 0.0000,  0.0000,  0.0000)
  34 Li     3.507247    4.069095   10.451496    ( 0.0000,  0.0000,  0.0000)
  35 Li     5.181775    1.033529    9.602072    ( 0.0000,  0.0000,  0.0000)
  36 N      1.753389    5.061910    1.929076    ( 0.0000,  0.0000,  0.0000)
  37 N      0.000000    2.024989    1.929076    ( 0.0000,  0.0000,  0.0000)
  38 N      3.506756    2.024989    1.929076    ( 0.0000,  0.0000,  0.0000)
  39 N      5.260124    5.061910    1.929076    ( 0.0000,  0.0000,  0.0000)
  40 N      1.757003    5.103588    5.965310    ( 0.0000,  0.0000,  0.0000)
  41 N      0.000308    2.070036    5.916010    ( 0.0000,  0.0000,  0.0000)
  42 N      3.507603    2.068684    5.838582    ( 0.0000,  0.0000,  0.0000)
  43 N      5.256784    5.103733    5.963609    ( 0.0000,  0.0000,  0.0000)
  44 N      1.780101    5.147632    9.955453    ( 0.0000,  0.0000,  0.0000)
  45 N     -0.000951    2.080846    9.846826    ( 0.0000,  0.0000,  0.0000)
  46 N      3.509024    2.114058    9.684462    ( 0.0000,  0.0000,  0.0000)
  47 N      5.236269    5.148413    9.963413    ( 0.0000,  0.0000,  0.0000)
  48 Li     6.984135    1.652077   11.671087    ( 0.0000,  0.0000,  0.0000)

Unit cell:
           periodic     x           y           z      points  spacing
  1. axis:    yes    7.013470    0.000000    0.000000    40     0.1753
  2. axis:    yes    0.000000    6.073843    0.000000    32     0.1898
  3. axis:    yes    0.000000    0.000000   29.936001   160     0.1871

  Lengths:   7.013470   6.073843  29.936001
  Angles:   90.000000  90.000000  90.000000

Effective grid spacing dv^(1/3) = 0.1840

                     log10-error:    total        iterations:
           time      wfs    density  energy       fermi  poisson
iter:   1  11:34:08                -186.529876    3
iter:   2  11:34:19  -0.99  -0.51  -176.486808    32
iter:   3  11:34:30  -0.37  -0.56  -182.415055    37
iter:   4  11:34:41  -1.92  -0.55  -168.475365    32
iter:   5  11:34:52  -2.83  -0.67  -166.918514    4
iter:   6  11:35:04  -1.70  -0.68  -160.593834    32
iter:   7  11:35:15  -1.54  -0.78  -157.794873    24
iter:   8  11:35:26  -1.67  -0.86  -156.362546    5
iter:   9  11:35:37  -1.18  -0.93  -173.927270    34
iter:  10  11:35:48  -1.28  -0.64  -155.891492    33
iter:  11  11:35:59  -1.99  -1.21  -156.172692    4
iter:  12  11:36:10  -2.08  -1.26  -155.295348    4
iter:  13  11:36:21  -2.66  -1.63  -155.278141    5
iter:  14  11:36:32  -3.35  -1.46  -155.382785    4
iter:  15  11:36:43  -2.76  -1.41  -155.459865    4
iter:  16  11:36:54  -3.99  -1.40  -155.389095    3
iter:  17  11:37:05  -4.28  -1.42  -155.234545    4
iter:  18  11:37:16  -3.24  -1.48  -155.261805    3
iter:  19  11:37:27  -2.92  -1.47  -155.168201    4
iter:  20  11:37:38  -3.66  -1.51  -155.157994    4
iter:  21  11:37:49  -3.15  -1.50  -155.064732    4
iter:  22  11:38:00  -2.77  -1.49  -155.286594    4
iter:  23  11:38:11  -2.49  -1.37  -155.203474    4
iter:  24  11:38:23  -2.79  -1.49  -155.118904    4
iter:  25  11:38:34  -3.87  -1.55  -155.160161    4
iter:  26  11:38:45  -2.30  -1.52  -155.068890    32
iter:  27  11:38:56  -3.37  -1.63  -155.037622    3
iter:  28  11:39:07  -2.23  -1.67  -155.051264    5
iter:  29  11:39:18  -3.23  -1.77  -155.061536    4
iter:  30  11:39:29  -3.16  -1.66  -155.040816    4
iter:  31  11:39:40  -3.79  -1.72  -154.983235    3
iter:  32  11:39:51  -3.94  -1.94  -154.982540    3
iter:  33  11:40:02  -4.02  -2.04  -154.981576    3
iter:  34  11:40:13  -4.02  -2.07  -154.983736    3
[...]
 |   | Li       Li N  |
 |   |Li LiN  Li LLi  |
 |   |    Li          |
 |   |   N Li    N Li |
 |  Li      Li        |
 |N  .-Li--N----Li----.
 |  / Li Li   Li Li  /
 Li/      Li        /
 |/i       Li      /

[...]

Density initialized from wave functions
 |  Lii  N  Li   N    |
 |   |             Li |
 |   | Li       Li    |
 |   |Li LLi  Li LiN  |
 |Li |   N Li    N    |
 |   |      Li       Li
 |   | Li  N    Li N  |
 |   |Li Li   Li LLi  |
 |   |    Li          |
 |   |   N Li    N Li |
 |  Li      Li        |
 |N  .-Li--N----Li----.
 |  / Li Li   Li Li  /
 Li/      Li        /
 |/i       Li      /

[...]

Density initialized from wave functions
 |  Lii  N  Li   N    |
 |   |             Li |
 |   | Li       Li    |
 |   |Li LLi  Li LiN  |
 |Li |   N Li    N    |
 |   |      Li       Li
 |N  | Li  N    Li    |
 |   |Li Li   Li LLi  |
 |   |    Li          |
 |   |   N Li    N Li |
 |  Li      Li        |
 |N  .-Li--N----Li----.
 |  / Li Li   Li Li  /
 Li/      Li        /
 |/i       Li      /

[...]

Density initialized from wave functions
 |  Lii  N  Li   N    |
 |   |             Li |
 |   | Li       Li    |
 |   |Li LLi  Li LiN  |
 |Li |   N Li    N    |
 |   |      Li       Li
 |N  | Li  N    Li    |
 |   |Li Li   Li LLi  |
 |   |    Li          |
 |Li |   N Li    N    |
 |  Li      Li        |
 |N  .-Li--N----Li----.
 |  / Li Li   Li Li  /
 Li/      Li        /
 |/i       Li      /

[...]

Density initialized from wave functions
 |  Li   N  Li   N    |
 |   Li            Li |
 |N  | Li       Li    |
 |   |Li LLi  LiLi    |
 |Li |   N Li    N    |
 |  Li      Li        |
 |N  | Li  N    Li    |
 Li  |Li Li   Li Li   |
 |   |    Li          |
 |Li |   N Li    N    |
 |  Li      Li        |
 |N  .-Li--N----Li----.
 |  / Li Li   Li Li  /
 Li/      Li        /
 |/i       Li      /

[...]

Density initialized from wave functions
 |  Li   N  Li   N    |
 |   Li            Li |
 |   | Li       Li N  |
 |   |Li LLi  LiLi    |
 |Li |   N Li    N    |
 |  Li      Li        |
 |N  | Li  N    Li    |
 Li  |LiLi    Li Li   |
 |   |    Li          |
 |Li |   N Li    N    |
 |  Li      Li        |
 |N  .-Li--N----Li----.
 |  / Li Li   Li Li  /
 Li/      Li        /
 |/i       Li      /

[...]

Density initialized from wave functions
 |  Li   N  Li   N    |
 |   Li            Li |
 |   | Li       Li N  |
 |   |Li LLi  LiLi    |
 |Li |   N Li    N    |
 |  Li      Li        |
 |N  | Li  N    Li    |
 Li  |LiLi    Li Li   |
 |   |    Li          |
 |Li |   N Li    N    |
 |  Li      Li        |
 |N  .-Li--N----Li----.
 |  / Li Li   Li Li  /
 Li/      Li        /
 |/i       Li      /

[...]

Density initialized from wave functions
 |  Li   N  Li   N    |
 |   Li            Li |
 |   | Li       Li N  |
 |   |Li LLi  LiLi    |
 |Li |   N Li    N    |
 |  Li      Li        |
 |   | Li  N    Li N  |
 Li  |LiLi    Li Li   |
 |   |    Li          |
 |Li |   N Li    N    |
 |  Li      Li        |
 |N  .-Li--N----Li----.
 |  / Li Li   Li Li  /
 Li/      Li        /
 |/i       Li      /

[...]

Density initialized from wave functions
 |  Li   N  Li   N    |
 |   Li           Li  |
 |   | Li       Li N  |
 |   |Li LLi  LiLi    |
 |Li |   N Li    N    |
 |  Li      Li        |
 |   | Li  N    Li N  |
 Li  |LiLi    Li Li   |
 |   |    Li          |
 |Li |   N Li    N    |
 |  Li      Li        |
 |N  .-Li--N----Li----.
 |  / Li Li   Li Li  /
 Li/      Li        /
 |/i       Li      /

[...]

Density initialized from wave functions
 |  Li   N  Li   N    |
 |   Li           Li  |
 |   | Li       Li N  |
 |   |Li LLi  LiLi    |
 |Li |   N Li    N    |
 |  Li      Li        |
 |   | Li  N    Li N  |
 Li  |LiLi    Li Li   |
 |   |    Li          |
 |   |   N Li    N Li |
 |  Li      Li        |
 |N  .-Li--N----Li----.
 |  / Li Li   Li Li  /
 Li/      Li        /
 |/i       Li      /

[...]

Density initialized from wave functions
 |  Li   N  Li   N    |
 |   Li           Li  |
 |   | Li       Li N  |
 |   |Li LLi  LiLi    |
 |Li |   N Li    N    |
 |   |      Li       Li
 |   | Li  N    Li N  |
 |   |LiLi    Li LLi  |
 |   |    Li          |
 |   |   N Li    N Li |
 |  Li      Li        |
 |N  .-Li--N----Li----.
 |  / Li Li   Li Li  /
 Li/      Li        /
 |/i       Li      /

[...]

Density initialized from wave functions
 |  Li   N  Li   N    |
 |   Li           Li  |
 |   | Li       Li N  |
 |   |Li LLi  LiLi    |
 |Li |   N Li    N    |
 |   |      Li       Li
 |   | Li  N    Li N  |
 |   |LiLi    Li LLi  |
 |   |    Li          |
 |   |   N Li    N Li |
 |  Li      Li        |
 |N  .-Li--N----Li----.
 |  / Li Li   Li Li  /
 Li/      Li        /
 |/i       Li      /

[...]

Density initialized from wave functions
 |  Li   N  Li   N    |
 |   Li               |
 |   | Li       LiLi  |
 |   |Li LLi  LiLi N  |
 |Li |   N Li    N    |
 |   |      Li       Li
 |N  | Li  N    Li    |
 |   |Li Li   Li LLi  |
 |   |    Li          |
 |   |   N Li    N Li |
 |  Li      Li        |
 |N  .-Li--N----Li----.
 |  / Li Li   Li Li  /
 Li/      Li        /
 |/i       Li      /

[...]

Density initialized from wave functions
 |  Li   N  Li   N    |
 |   Li               |
 |   | Li       LiLi  |
 |   |Li LLi  LiLi N  |
 |Li |   N Li    N    |
 |   |      Li       Li
 |N  | Li  N    Li    |
 |   |Li Li   Li LLi  |
 |   |    Li          |
 |   |   N Li    N Li |
 |  Li      Li        |
 |N  .-Li--N----Li----.
 |  / Li Li   Li Li  /
 Li/      Li        /
 |/i       Li      /

[...]

Density initialized from wave functions
 |  Li   N  Li   N    |
 |   Li               |
 |   | Li       LiLi  |
 |   |Li LLi  LiLi N  |
 |Li |   N Li    N    |
 |   |      Li       Li
 |   | Li  N    Li N  |
 |   |Li Li   Li LLi  |
 |   |    Li          |
 |   |   N Li    N Li |
 |  Li      Li        |
 |N  .-Li--N----Li----.
 |  / Li Li   Li Li  /
 Li/      Li        /
 |/i       Li      /

[...]

Density initialized from wave functions
 |  Li   N  Li   N    |
 |   Li               |
 |   | Li       LiLi  |
 |   |Li LLi  LiLi N  |
 |Li |   N Li    N    |
 |   |      Li       Li
 |   | Li  N    Li N  |
 |   |Li Li   Li LLi  |
 |   |    Li          |
 |   |   N Li    N Li |
 |  Li      Li        |
 |N  .-Li--N----Li----.
 |  / Li Li   Li Li  /
 Li/      Li        /
 |/i       Li      /

[...]

Density initialized from wave functions
 |  Li   N  Li   N    |
 |   Li               |
 |   | Li       LiLi  |
 |   |Li LLi  LiLi N  |
 |Li |   N Li    N    |
 |  Li      Li        |
 |   | Li  N    Li N  |
 Li  |Li Li   Li Li   |
 |   |    Li          |
 |   |   N Li    N Li |
 |  Li      Li        |
 |N  .-Li--N----Li----.
 |  / Li Li   Li Li  /
 Li/      Li        /
 |/i       Li      /

[...]

Density initialized from wave functions
 |  Li   N  Li   N    |
 |   Li               |
 |   | Li       LiLi  |
 |   |Li LLi  LiLi N  |
 |Li |   N Li    N    |
 |  Li      Li        |
 |N  | Li  N    Li    |
 Li  |Li Li   Li Li   |
 |   |    Li          |
 |   |   N Li    N Li |
 |  Li      Li        |
 |N  .-Li--N----Li----.
 |  / Li Li   Li Li  /
 Li/      Li        /
 |/i       Li      /

[...]

Density initialized from wave functions
 |  Li   N  Li   N    |
 |   Li               |
 |   | Li       LiLi  |
 |   |Li LLi  LiLi N  |
 |Li |   N Li    N    |
 |  Li      Li        |
 |N  | Li  N    Li    |
 Li  |Li Li   Li Li   |
 |   |    Li          |
 |   |   N Li    N Li |
 |  Li      Li        |
 |N  .-Li--N----Li----.
 |  / Li Li   Li Li  /
 Li/      Li        /
 |/i       Li      /

[...]

Density initialized from wave functions
 |  Li   N  Li   N    |
 |   Li               |
 |   | Li       LiLi  |
 |   |Li LLi  LiLi N  |
 |Li |   N Li    N    |
 |  Li      Li        |
 |N  | Li  N    Li    |
 Li  |LiLi    Li Li   |
 |   |    Li          |
 |   |   N Li    N Li |
 |  Li      Li        |
 |N  .-Li--N----Li----.
 |  / Li Li   Li Li  /
 Li/      Li        /
 |/i       Li      /

[...]

Density initialized from wave functions
 |  Li   N  Li   N    |
 |   Li               |
 |   | Li       LiLi  |
 |   |Li LLi  LiLi N  |
 |Li |   N Li    N    |
 |  Li      Li        |
 |N  | Li  N    Li    |
 Li  |LiLi    Li Li   |
 |   |    Li          |
 |   |   N Li    N Li |
 |  Li      Li        |
 |N  .-Li--N----Li----.
 |  / Li Li   Li Li  /
 Li/      Li        /
 |/i       Li      /

[...]

Density initialized from wave functions
 |  Li   N  Li   N    |
 |   Li               |
 |   | Li       LiLi  |
 |   |Li  Li  LiLi N  |
 |Li |   N Li    N    |
 |  Li      Li        |
 |N  | Li  N    Li    |
 Li  |LiLi    Li Li   |
 |   |    Li          |
 |   |   N Li    N Li |
 |  Li      Li        |
 |N  .-Li--N----Li----.
 |  / Li Li   Li Li  /
 Li/      Li        /
 |/i       Li      /

[...]

System changes: positions

Initializing position-dependent things.

Density initialized from wave functions
 |  Li   N  Li   N    |
 |   Li               |
 |   | Li       LiLi  |
 |   |Li  Li  LiLi N  |
 |Li |   N Li    N    |
 |  Li      Li        |
 |N  | Li  N    Li    |
 Li  |LiLi    Li Li   |
 |   |    Li          |
 |   |   N Li    N Li |
 |  Li      Li        |
 |N  .-Li--N----Li----.
 |  / Li Li   Li Li  /
 Li/      Li        /
 |/i       Li      /

Positions:
   0 Li     1.753389    5.061850    0.000000    ( 0.0000,  0.0000,  0.0000)
   1 Li     0.000000    2.024928    0.000000    ( 0.0000,  0.0000,  0.0000)
   2 Li     3.506756    2.024928    0.000000    ( 0.0000,  0.0000,  0.0000)
   3 Li     5.260124    5.061850    0.000000    ( 0.0000,  0.0000,  0.0000)
   4 Li     1.753389    3.037256    1.946139    ( 0.0000,  0.0000,  0.0000)
   5 Li     0.000000    0.000334    1.946139    ( 0.0000,  0.0000,  0.0000)
   6 Li     3.506756    0.000334    1.946139    ( 0.0000,  0.0000,  0.0000)
   7 Li     5.260124    3.037256    1.946139    ( 0.0000,  0.0000,  0.0000)
   8 Li     1.753367    1.012631    1.946139    ( 0.0000,  0.0000,  0.0000)
   9 Li     0.000000    4.049553    1.946139    ( 0.0000,  0.0000,  0.0000)
  10 Li     3.506735    4.049553    1.946139    ( 0.0000,  0.0000,  0.0000)
  11 Li     5.260103    1.012631    1.946139    ( 0.0000,  0.0000,  0.0000)
  12 Li     1.699514    5.090094    3.997530    ( 0.0000,  0.0000,  0.0000)
  13 Li    -0.001982    2.045772    3.946478    ( 0.0000,  0.0000,  0.0000)
  14 Li     3.508400    2.053094    3.896722    ( 0.0000,  0.0000,  0.0000)
  15 Li     5.314646    5.091007    4.000693    ( 0.0000,  0.0000,  0.0000)
  16 Li     1.745796    3.104224    5.861849    ( 0.0000,  0.0000,  0.0000)
  17 Li     0.000321    0.073742    6.157848    ( 0.0000,  0.0000,  0.0000)
  18 Li     3.508239    0.073407    5.897593    ( 0.0000,  0.0000,  0.0000)
  19 Li     5.267469    3.101974    5.867105    ( 0.0000,  0.0000,  0.0000)
  20 Li     1.745328    1.074724    5.880396    ( 0.0000,  0.0000,  0.0000)
  21 Li     0.000848    4.128372    6.132751    ( 0.0000,  0.0000,  0.0000)
  22 Li     3.507035    4.101375    5.924887    ( 0.0000,  0.0000,  0.0000)
  23 Li     5.267602    1.074854    5.894787    ( 0.0000,  0.0000,  0.0000)
  24 Li     2.123542    5.153452    8.050749    ( 0.0000,  0.0000,  0.0000)
  25 Li     0.004652    2.203462    7.874053    ( 0.0000,  0.0000,  0.0000)
  26 Li     3.495339    2.096886    7.794439    ( 0.0000,  0.0000,  0.0000)
  27 Li     4.909288    5.111469    8.061729    ( 0.0000,  0.0000,  0.0000)
  28 Li     1.712268    3.233322    9.619889    ( 0.0000,  0.0000,  0.0000)
  29 Li     0.018903   -0.312197    9.187448    ( 0.0000,  0.0000,  0.0000)
  30 Li     3.526887    0.212322   10.578359    ( 0.0000,  0.0000,  0.0000)
  31 Li     5.307723    3.239216    9.678713    ( 0.0000,  0.0000,  0.0000)
  32 Li     1.772819    1.128413    9.796740    ( 0.0000,  0.0000,  0.0000)
  33 Li     0.026821    4.045625   10.797533    ( 0.0000,  0.0000,  0.0000)
  34 Li     3.492916    4.050941   10.637852    ( 0.0000,  0.0000,  0.0000)
  35 Li     5.227472    1.130850    9.684442    ( 0.0000,  0.0000,  0.0000)
  36 N      1.753389    5.061910    1.929076    ( 0.0000,  0.0000,  0.0000)
  37 N      0.000000    2.024989    1.929076    ( 0.0000,  0.0000,  0.0000)
  38 N      3.506756    2.024989    1.929076    ( 0.0000,  0.0000,  0.0000)
  39 N      5.260124    5.061910    1.929076    ( 0.0000,  0.0000,  0.0000)
  40 N      1.769339    5.128763    6.011945    ( 0.0000,  0.0000,  0.0000)
  41 N      0.000142    2.096861    5.901631    ( 0.0000,  0.0000,  0.0000)
  42 N      3.506305    2.087644    5.805265    ( 0.0000,  0.0000,  0.0000)
  43 N      5.245204    5.126798    6.017676    ( 0.0000,  0.0000,  0.0000)
  44 N      1.724296    5.205365   10.079194    ( 0.0000,  0.0000,  0.0000)
  45 N     -0.004344    2.061956    9.796317    ( 0.0000,  0.0000,  0.0000)
  46 N      3.507573    2.199043    9.699144    ( 0.0000,  0.0000,  0.0000)
  47 N      5.322454    5.228294   10.094978    ( 0.0000,  0.0000,  0.0000)
  48 Li     6.907852    0.575602   11.216054    ( 0.0000,  0.0000,  0.0000)

Unit cell:
           periodic     x           y           z      points  spacing
  1. axis:    yes    7.013470    0.000000    0.000000    40     0.1753
  2. axis:    yes    0.000000    6.073843    0.000000    32     0.1898
  3. axis:    yes    0.000000    0.000000   29.936001   160     0.1871

  Lengths:   7.013470   6.073843  29.936001
  Angles:   90.000000  90.000000  90.000000

Effective grid spacing dv^(1/3) = 0.1840

                     log10-error:    total        iterations:
           time      wfs    density  energy       fermi  poisson
iter:   1  13:22:41  -3.91         -155.381771    3
iter:   2  13:22:52  -4.92  -2.87  -155.380187    3
iter:   3  13:23:04  -5.78  -2.82  -155.380119    3
iter:   4  13:23:15  -5.41  -3.21  -155.379737    3
iter:   5  13:23:27  -6.11  -3.17  -155.379833    3
iter:   6  13:23:38  -6.31  -3.48  -155.379839    3
iter:   7  13:23:50  -6.76  -3.79  -155.379891    2
iter:   8  13:24:01  -7.07  -3.88  -155.379895    2
iter:   9  13:24:13  -7.11  -4.05  -155.379884    2

Converged after 9 iterations.

Dipole moment: (0.829646, -1.497137, 5.264012) |e|*Ang

Energy contributions relative to reference atoms: (reference = -25283.807400)

Kinetic:       +163.731809
Potential:     -119.585088
External:        +0.000000
XC:            -198.491462
Entropy (-ST):   -0.020415
Local:           -1.024935
Free energy:   -155.390091
Extrapolated:  -155.379884

Non-local vdW-DF-cx correlation energy: 15.201248
Semilocal GGA_X_LV_RPW86+LDA_C_PW energy: -1086.180151
(Not including atomic contributions)
Fermi level: -0.97990

Showing only first 2 kpts
 Kpt  Band  Eigenvalues  Occupancy
  0    46     -1.44824    0.13333
  0    47     -0.89176    0.00671
  0    48     -0.76832    0.00012
  0    49     -0.40788    0.00000

  1    46     -1.45241    0.13333
  1    47     -1.16599    0.13306
  1    48     -0.90265    0.00944
  1    49     -0.38429    0.00000

No gap

Forces in eV/Ang:
  0 Li   -0.00024   -0.00086   -0.11897
  1 Li   -0.00001   -0.00058   -0.12610
  2 Li    0.00003   -0.00072   -0.13070
  3 Li    0.00019   -0.00089   -0.11866
  4 Li   -0.00069    0.01619    0.02819
  5 Li    0.00010    0.01454   -0.00576
  6 Li   -0.00001   -0.01432    0.07588
  7 Li    0.00037    0.01804    0.02626
  8 Li    0.00339   -0.00188    0.02580
  9 Li   -0.00008   -0.00302    0.00506
 10 Li    0.00051    0.03151    0.07485
 11 Li   -0.00328   -0.00318    0.02328
 12 Li    0.01049    0.01494   -0.01288
 13 Li   -0.00185   -0.00047    0.00414
 14 Li    0.00143    0.00332   -0.01193
 15 Li   -0.00960    0.01514   -0.01390
 16 Li   -0.00060    0.00930   -0.02140
 17 Li    0.00126   -0.01525   -0.03007
 18 Li   -0.00079   -0.00818   -0.03796
 19 Li    0.00255    0.01435   -0.02358
 20 Li    0.00092   -0.00093    0.00539
 21 Li    0.00126    0.01787    0.01354
 22 Li   -0.00183    0.00209   -0.01705
 23 Li    0.00060   -0.00660    0.00913
 24 Li   -0.01370    0.01797    0.01593
 25 Li    0.00321   -0.03010    0.02449
 26 Li   -0.00339   -0.00991    0.00265
 27 Li    0.01853   -0.00416    0.00967
 28 Li    0.00947   -0.01587   -0.01365
 29 Li    0.00193   -0.00422    0.00848
 30 Li    0.00762   -0.02117   -0.02240
 31 Li   -0.00821   -0.01294    0.01191
 32 Li    0.00109    0.00288   -0.00626
 33 Li    0.00786    0.00731    0.03080
 34 Li   -0.00271   -0.02804   -0.03739
 35 Li   -0.00426   -0.00181   -0.04563
 36 N    -0.05037    0.02739    0.17324
 37 N    -0.00125    0.01393    0.02945
 38 N     0.00110    0.01725   -0.16028
 39 N     0.05027    0.02851    0.18245
 40 N     0.00028   -0.00330    0.00063
 41 N     0.00252    0.00743   -0.01783
 42 N    -0.00207    0.00755    0.02920
 43 N    -0.00011   -0.00443    0.00444
 44 N    -0.00043   -0.00141   -0.01656
 45 N    -0.00106   -0.00209   -0.03053
 46 N    -0.00190    0.00164   -0.03158
 47 N     0.01210    0.00958   -0.00904
 48 Li   -0.02795   -0.01524    0.00816

Date: Mon Sep  6 13:24:20 2021