User:   jngwng01@n716004
Date:   Mon Sep  6 08:31:24 2021
Arch:   x86_64
Pid:    13406
Python: 3.8.5
gpaw:   /uls/7/gpaw-20.1.0/lib/python3.8/site-packages/gpaw-20.1.0-py3.8-linux-x86_64.egg/gpaw
_gpaw:  /uls/7/gpaw-20.1.0/lib/python3.8/site-packages/gpaw-20.1.0-py3.8-linux-x86_64.egg/
        _gpaw.cpython-38-x86_64-linux-gnu.so
ase:    /uls/7/gpaw-20.1.0/lib/python3.8/site-packages/ase-3.20.1-py3.8.egg/ase (version 3.20.1)
numpy:  /uls/7/gpaw-20.1.0/lib/python3.8/site-packages/numpy (version 1.19.2)
scipy:  /uls/7/gpaw-20.1.0/lib/python3.8/site-packages/scipy-1.5.2-py3.8-linux-x86_64.egg/scipy (version 1.5.2)
units:  Angstrom and eV
cores: 32
OMP_NUM_THREADS: 1

Input parameters:
  convergence: {eigenstates: 1e-08}
  kpts: [5 6 1]
  mode: {ecut: 500.0,
         gammacentered: False,
         name: pw}
  occupations: {name: fermi-dirac,
                width: 0.03}
  random: True
  xc: {backend: libvdwxc,
       libvdwxc_name: vdW-DF-cx,
       name: vdW-DF-cx,
       semilocal_xc: GGA_X_LV_RPW86+LDA_C_PW,
       setup_name: PBE,
       vdwcoef: 1.0}

System changes: positions, numbers, cell, pbc, initial_charges, initial_magmoms

Initialize ...

Li-setup:
  name: Lithium
  id: 830b4218f175192f93f959cfc0aad614
  Z: 3
  valence: 1
  core: 2
  charge: 0.0
  file: /uls/7/gpaw-20.1.0/setups/gpaw-setups-0.9.20000/Li.PBE.gz
  compensation charges: gauss, rc=0.33, lmax=2
  cutoffs: 1.91(filt), 2.55(core),
  valence states:
                energy  radius
    2s(1.00)    -2.874   1.058
    2p(0.00)    -1.090   1.058
    *s          24.337   1.058

  Using partial waves for Li as LCAO basis

N-setup:
  name: Nitrogen
  id: f7500608b86eaa90eef8b1d9a670dc53
  Z: 7
  valence: 5
  core: 2
  charge: 0.0
  file: /uls/7/gpaw-20.1.0/setups/gpaw-setups-0.9.20000/N.PBE.gz
  compensation charges: gauss, rc=0.18, lmax=2
  cutoffs: 1.11(filt), 0.96(core),
  valence states:
                energy  radius
    2s(2.00)   -18.583   0.603
    2p(3.00)    -7.089   0.529
    *s           8.629   0.603
    *p          20.123   0.529
    *d           0.000   0.577

  Using partial waves for N as LCAO basis

Reference energy: -25283.807400

Spin-paired calculation

Occupation numbers:
  Fermi-Dirac: width=0.0300 eV

Convergence criteria:
  Maximum total energy change: 0.0005 eV / electron
  Maximum integral of absolute density change: 0.0001 electrons
  Maximum integral of absolute eigenstate change: 1e-08 eV^2
  Maximum number of iterations: 333

Symmetries present (total): 1

  ( 1  0  0)
  ( 0  1  0)
  ( 0  0  1)

30 k-points: 5 x 6 x 1 Monkhorst-Pack grid
15 k-points in the irreducible part of the Brillouin zone
       k-points in crystal coordinates                weights
   0:     0.00000000    0.08333333    0.00000000          2/30
   1:     0.00000000    0.25000000    0.00000000          2/30
   2:     0.00000000    0.41666667    0.00000000          2/30
   3:     0.20000000   -0.41666667    0.00000000          2/30
   4:     0.20000000   -0.25000000    0.00000000          2/30
   5:     0.20000000   -0.08333333    0.00000000          2/30
   6:     0.20000000    0.08333333    0.00000000          2/30
   7:     0.20000000    0.25000000    0.00000000          2/30
   8:     0.20000000    0.41666667    0.00000000          2/30
   9:     0.40000000   -0.41666667    0.00000000          2/30
          ...
  14:     0.40000000    0.41666667    0.00000000          2/30

Wave functions: Plane wave expansion
  Cutoff energy: 500.000 eV
  Number of coefficients (min, max): 32335, 32478
  Pulay-stress correction: 0.000000 eV/Ang^3 (de/decut=0.000000)
  Using FFTW library
  ScaLapack parameters: grid=1x1, blocksize=None
  Wavefunction extrapolation:
    Improved wavefunction reuse through dual PAW basis

Eigensolver
   Davidson(niter=2, smin=None, normalize=True)

Densities:
  Coarse grid: 40*32*160 grid
  Fine grid: 80*64*320 grid
  Total Charge: 0.000000

Density mixing:
  Method: separate
  Backend: pulay
  Linear mixing parameter: 0.05
  Mixing with 5 old densities
  Damping of long wave oscillations: 50

Hamiltonian:
  XC and Coulomb potentials evaluated on a 80*64*320 grid
  Using the vdW-DF-cx Exchange-Correlation functional

XC parameters: vdW-DF-cx with libvdwxc
  Semilocal: GGA_X_LV_RPW86+LDA_C_PW with 2 nearest neighbor stencil
  Local blocksize: 3 x 64 x 320
  PAW datasets: PBE

Total number of cores used: 32
Parallelization over k-points: 8
Domain decomposition: 1 x 1 x 4
                      2 x 2 x 8 (xc only)

Number of atoms: 49
Number of atomic orbitals: 196
Number of bands in calculation: 63
Number of valence electrons: 97
Bands to converge: occupied

... initialized

Initializing position-dependent things.

Density initialized from atomic densities
Creating initial wave functions:
  63 bands from LCAO basis set

 |   |             Li |
 |  Li   N  Li   N    |
 |   | Li       Li    |
 |N  |Li LiN  Li Li   |
 Li  |    Li          |
 |Li |   N Li    N    |
 |  Li      Li        |
 |N  | Li  N    Li    |
 |   |Li Li   Li Li   |
 Li  |    Li          |
 |Li |   N Li    N    |
 |  Li      Li        |
 |N  .-Li--N----Li----.
 |  / Li Li   Li Li  /
 Li/      Li        /
 |/i       Li      /

Positions:
   0 Li     1.753389    5.061850    0.000000    ( 0.0000,  0.0000,  0.0000)
   1 Li     0.000000    2.024928    0.000000    ( 0.0000,  0.0000,  0.0000)
   2 Li     3.506756    2.024928    0.000000    ( 0.0000,  0.0000,  0.0000)
   3 Li     5.260124    5.061850    0.000000    ( 0.0000,  0.0000,  0.0000)
   4 Li     1.753389    3.037256    1.946139    ( 0.0000,  0.0000,  0.0000)
   5 Li     0.000000    0.000334    1.946139    ( 0.0000,  0.0000,  0.0000)
   6 Li     3.506756    0.000334    1.946139    ( 0.0000,  0.0000,  0.0000)
   7 Li     5.260124    3.037256    1.946139    ( 0.0000,  0.0000,  0.0000)
   8 Li     1.753367    1.012631    1.946139    ( 0.0000,  0.0000,  0.0000)
   9 Li     0.000000    4.049553    1.946139    ( 0.0000,  0.0000,  0.0000)
  10 Li     3.506735    4.049553    1.946139    ( 0.0000,  0.0000,  0.0000)
  11 Li     5.260103    1.012631    1.946139    ( 0.0000,  0.0000,  0.0000)
  12 Li     1.753389    5.061850    3.920419    ( 0.0000,  0.0000,  0.0000)
  13 Li     0.000000    2.024928    3.920419    ( 0.0000,  0.0000,  0.0000)
  14 Li     3.506756    2.024928    3.920419    ( 0.0000,  0.0000,  0.0000)
  15 Li     5.260124    5.061850    3.920419    ( 0.0000,  0.0000,  0.0000)
  16 Li     1.753389    3.037256    5.887813    ( 0.0000,  0.0000,  0.0000)
  17 Li     0.000000    0.000334    5.887813    ( 0.0000,  0.0000,  0.0000)
  18 Li     3.506756    0.000334    5.887813    ( 0.0000,  0.0000,  0.0000)
  19 Li     5.260124    3.037256    5.887813    ( 0.0000,  0.0000,  0.0000)
  20 Li     1.753367    1.012631    5.887813    ( 0.0000,  0.0000,  0.0000)
  21 Li     0.000000    4.049553    5.887813    ( 0.0000,  0.0000,  0.0000)
  22 Li     3.506735    4.049553    5.887813    ( 0.0000,  0.0000,  0.0000)
  23 Li     5.260103    1.012631    5.887813    ( 0.0000,  0.0000,  0.0000)
  24 Li     1.753389    5.061850    7.859398    ( 0.0000,  0.0000,  0.0000)
  25 Li     0.000000    2.024928    7.859398    ( 0.0000,  0.0000,  0.0000)
  26 Li     3.506756    2.024928    7.859398    ( 0.0000,  0.0000,  0.0000)
  27 Li     5.260124    5.061850    7.859398    ( 0.0000,  0.0000,  0.0000)
  28 Li     1.753403    3.037286    9.979765    ( 0.0000,  0.0000,  0.0000)
  29 Li     0.000000    0.000364    9.979765    ( 0.0000,  0.0000,  0.0000)
  30 Li     3.506770    0.000364    9.979765    ( 0.0000,  0.0000,  0.0000)
  31 Li     5.260138    3.037286    9.979765    ( 0.0000,  0.0000,  0.0000)
  32 Li     1.753389    1.012661    9.979765    ( 0.0000,  0.0000,  0.0000)
  33 Li     0.000000    4.049583    9.979765    ( 0.0000,  0.0000,  0.0000)
  34 Li     3.506756    4.049583    9.979765    ( 0.0000,  0.0000,  0.0000)
  35 Li     5.260124    1.012661    9.979765    ( 0.0000,  0.0000,  0.0000)
  36 N      1.753389    5.061910    1.929076    ( 0.0000,  0.0000,  0.0000)
  37 N      0.000000    2.024989    1.929076    ( 0.0000,  0.0000,  0.0000)
  38 N      3.506756    2.024989    1.929076    ( 0.0000,  0.0000,  0.0000)
  39 N      5.260124    5.061910    1.929076    ( 0.0000,  0.0000,  0.0000)
  40 N      1.753389    5.061910    5.864163    ( 0.0000,  0.0000,  0.0000)
  41 N      0.000000    2.024989    5.864163    ( 0.0000,  0.0000,  0.0000)
  42 N      3.506756    2.024989    5.864163    ( 0.0000,  0.0000,  0.0000)
  43 N      5.260124    5.061910    5.864163    ( 0.0000,  0.0000,  0.0000)
  44 N      1.753389    5.061910    9.782786    ( 0.0000,  0.0000,  0.0000)
  45 N      0.000000    2.024989    9.782786    ( 0.0000,  0.0000,  0.0000)
  46 N      3.506756    2.024989    9.782786    ( 0.0000,  0.0000,  0.0000)
  47 N      5.260124    5.061910    9.782786    ( 0.0000,  0.0000,  0.0000)
  48 Li     6.995838    1.999309   12.374615    ( 0.0000,  0.0000,  0.0000)

Unit cell:
           periodic     x           y           z      points  spacing
  1. axis:    yes    7.013470    0.000000    0.000000    40     0.1753
  2. axis:    yes    0.000000    6.073843    0.000000    32     0.1898
  3. axis:    yes    0.000000    0.000000   29.936001   160     0.1871

  Lengths:   7.013470   6.073843  29.936001
  Angles:   90.000000  90.000000  90.000000

Effective grid spacing dv^(1/3) = 0.1840

                     log10-error:    total        iterations:
           time      wfs    density  energy       fermi  poisson
iter:   1  08:31:52                -187.121154    3
iter:   2  08:32:03  -0.99  -0.50  -176.666905    31
iter:   3  08:32:14  -0.37  -0.56  -179.353335    35
iter:   4  08:32:25  -1.88  -0.60  -164.755824    33
iter:   5  08:32:35  -2.63  -0.69  -162.025665    4
iter:   6  08:32:46  -1.96  -0.71  -157.674529    5
iter:   7  08:32:57  -1.74  -0.82  -155.912128    4
iter:   8  08:33:08  -1.74  -0.89  -154.922785    6
iter:   9  08:33:19  -1.30  -0.96  -155.499605    35
iter:  10  08:33:30  -1.88  -1.17  -154.514229    4
iter:  11  08:33:40  -2.77  -1.27  -154.045077    5
iter:  12  08:33:51  -1.78  -1.33  -154.614304    34
iter:  13  08:34:02  -2.21  -1.26  -154.401553    3
iter:  14  08:34:13  -2.12  -1.31  -153.948887    34
iter:  15  08:34:24  -2.33  -1.44  -154.194445    4
iter:  16  08:34:34  -2.91  -1.47  -154.225697    4
iter:  17  08:34:45  -2.51  -1.49  -154.035466    3
iter:  18  08:34:56  -2.80  -1.69  -153.897299    5
iter:  19  08:35:07  -3.38  -1.90  -153.884525    3
iter:  20  08:35:18  -3.97  -1.98  -153.882234    4
iter:  21  08:35:29  -4.37  -2.09  -153.878885    3
iter:  22  08:35:40  -3.72  -2.14  -153.867664    3
iter:  23  08:35:50  -4.02  -2.37  -153.866164    3
iter:  24  08:36:01  -4.72  -2.67  -153.866096    3
iter:  25  08:36:12  -4.94  -2.74  -153.865349    2
iter:  26  08:36:23  -5.83  -2.83  -153.865820    3
iter:  27  08:36:34  -5.35  -2.87  -153.865616    2
iter:  28  08:36:44  -6.30  -3.05  -153.865636    2
iter:  29  08:36:55  -6.17  -3.08  -153.865650    3
iter:  30  08:37:06  -5.96  -3.12  -153.865726    3
iter:  31  08:37:17  -6.57  -3.19  -153.865743    2
iter:  32  08:37:28  -6.06  -3.20  -153.865770    3
iter:  33  08:37:39  -6.31  -3.36  -153.865891    2
[...]

Showing only first 2 kpts
 Kpt  Band  Eigenvalues  Occupancy
  0    46     -1.03794    0.13327
  0    47     -0.70516    0.00391
  0    48     -0.63775    0.00042
  0    49     -0.52975    0.00001

  1    46     -1.01322    0.13318
  1    47     -1.00474    0.13313
  1    48     -0.79784    0.05317
  1    49     -0.33193    0.00000

No gap

Forces in eV/Ang:
  0 Li   -0.00003    0.00003   -0.09525
  1 Li    0.00001    0.00002   -0.09553
  2 Li   -0.00001    0.00002   -0.09525
  3 Li    0.00000    0.00002   -0.09525
  4 Li    0.00043    0.00258    0.03464
  5 Li    0.00009    0.00133    0.03485
  6 Li   -0.00009    0.00205    0.03550
  7 Li   -0.00069    0.00261    0.03463
  8 Li    0.00065   -0.00214    0.03464
  9 Li    0.00018   -0.00085    0.03487
 10 Li    0.00018   -0.00157    0.03551
 11 Li   -0.00047   -0.00210    0.03464
 12 Li    0.00102    0.00006    0.08342
 13 Li    0.00003    0.00009    0.08207
 14 Li   -0.00002    0.00009    0.08322
 15 Li   -0.00106    0.00005    0.08342
 16 Li    0.00801    0.00583   -0.01364
 17 Li    0.00014   -0.01184   -0.01149
 18 Li   -0.00014   -0.00168   -0.00198
 19 Li   -0.00827    0.00578   -0.01360
 20 Li    0.00821   -0.00541   -0.01343
 21 Li    0.00023    0.01236   -0.01174
 22 Li    0.00013    0.00216   -0.00210
 23 Li   -0.00803   -0.00528   -0.01339
 24 Li    0.01398    0.00064    0.05638
 25 Li   -0.00023   -0.00058    0.09923
 26 Li    0.00031   -0.00036    0.05290
 27 Li   -0.01403    0.00064    0.05690
 28 Li    0.14100    0.08033   -0.16225
 29 Li    0.00132   -0.19104   -0.18853
 30 Li   -0.00049   -0.01328    0.00861
 31 Li   -0.14437    0.08170   -0.17191
 32 Li    0.14468   -0.08082   -0.17075
 33 Li    0.00130    0.18558   -0.17157
 34 Li   -0.00033    0.01416    0.00957
 35 Li   -0.14794   -0.08216   -0.18083
 36 N    -0.00059    0.01926   -0.16607
 37 N     0.00011    0.01924   -0.15889
 38 N    -0.00011    0.01925   -0.16539
 39 N     0.00035    0.01924   -0.16608
 40 N    -0.00729    0.01895   -0.03293
 41 N     0.00017    0.01932    0.02128
 42 N    -0.00016    0.01916   -0.02922
 43 N     0.00703    0.01893   -0.03245
 44 N    -0.09574    0.02208    0.20108
 45 N    -0.00821    0.00780    1.60482
 46 N     0.00341    0.01967    0.20839
 47 N     0.09697    0.02221    0.20676
 48 Li    0.00836    0.01175   -1.24565

System changes: positions

[...]

Density initialized from wave functions
 |   |             Li |
 |   Li               |
 |  Li   N  Li   N    |
 |   | Li       Li    |
 |   |Li LiN  Li LiN  |
 |   |    Li          |
 |   |   N Li    N Li |
 |  Li      Li        |
 |N  | Li  N    Li    |
 |   |Li Li   Li Li   |
 Li  |    Li          |
 |Li |   N Li    N    |
 |  Li      Li        |
 |N  .-Li--N----Li----.
 |  / Li Li   Li Li  /
 Li/      Li        /
 |/i       Li      /

[...]

Density initialized from wave functions
 |   Li      Li    Li |
 |  Li   N  Li   N    |
 |   | Li       Li N  |
 |   |Li LiN  Li Li   |
 |   Li  N Li    N Li |
 |  Li      Li        |
 |N  | Li  N    Li    |
 |   |Li Li   Li Li   |
 |   |    Li          |
 |Li |   N Li    N    |
 |  Li      Li        |
 |N  .-Li--N----Li----.
 |  / Li Li   Li Li  /
 Li/      Li        /
 |/i       Li      /

[...]

Density initialized from wave functions
 |   Li      Li    Li |
 |  Li   N  Li   N    |
 |   | Li       Li N  |
 |   |Li LiN  Li Li   |
 |   Li  N Li    N Li |
 |  Li      Li        |
 |N  | Li  N    Li    |
 |   |Li Li   Li Li   |
 |   |    Li          |
 |Li |   N Li    N    |
 |  Li      Li        |
 |N  .-Li--N----Li----.
 |  / Li Li   Li Li  /
 Li/      Li        /
 |/i       Li      /

[...]

Density initialized from wave functions
 |   Li      Li    Li |
 |  Li   N  Li   N    |
 |   | Li       Li N  |
 |   |Li LiN  Li Li   |
 |   |   N Li    N Li |
 |  Li      Li        |
 |N  | Li  N    Li    |
 |   |Li Li   Li Li   |
 Li  |    Li          |
 |Li |   N Li    N    |
 |  Li      Li        |
 |N  .-Li--N----Li----.
 |  / Li Li   Li Li  /
 Li/      Li        /
 |/i       Li      /

[...]

Density initialized from wave functions
 |   Li      Li    Li |
 |  Li   N  Li   N    |
 |   | Li       Li N  |
 |   |Li LiN  Li Li   |
 |Li |   N Li    N    |
 |  Li      Li        |
 |N  | Li  N    Li    |
 |   |Li Li   Li Li   |
 Li  |    Li          |
 |Li |   N Li    N    |
 |  Li      Li        |
 |N  .-Li--N----Li----.
 |  / Li Li   Li Li  /
 Li/      Li        /
 |/i       Li      /

[...]

Density initialized from wave functions
 |   |       Li    Li Li
 |   |   N  Li   N   Li
 |   | Li       Li N  |
 |   |Li LiN  Li Li   |
 |Li |   N Li    N    |
 |  Li      Li        |
 |N  | Li  N    Li    |
 |   |Li Li   Li Li   |
 Li  |    Li          |
 |Li |   N Li    N    |
 |  Li      Li        |
 |N  .-Li--N----Li----.
 |  / Li Li   Li Li  /
 Li/      Li        /
 |/i       Li      /

[...]

Density initialized from wave functions
 |   |       Li    Li Li
 |   |   N  Li   N   Li
 |   | Li       Li N  |
 |   |Li LiN  Li Li   |
 |Li |   N Li    N    |
 |  Li      Li        |
 |N  | Li  N    Li    |
 |   |Li Li   Li Li   |
 Li  |    Li          |
 |Li |   N Li    N    |
 |  Li      Li        |
 |N  .-Li--N----Li----.
 |  / Li Li   Li Li  /
 Li/      Li        /
 |/i       Li      /

[...]

Density initialized from wave functions
 |   |       Li    Li Li
 |   |   N  Li   N   Li
 |   | Li       Li N  |
 |   |Li LiN  Li Li   |
 |Li |   N Li    N    |
 |  Li      Li        |
 |N  | Li  N    Li    |
 |   |Li Li   Li Li   |
 |   |    Li      Li  |
 |Li |   N Li    N    |
 |  Li      Li        |
 |N  .-Li--N----Li----.
 |  / Li Li   Li Li  /
 Li/      Li        /
 |/i       Li      /

[...]

Density initialized from wave functions
 |   |       Li    Li Li
 |   |   N  Li   N   Li
 |   | Li       Li N  |
 |   |Li LiN  Li Li   |
 |Li |   N Li    N    |
 |   |      Li       Li
 |N  | Li  N    Li    |
 |   |Li Li   Li Li   |
 |   |    Li      Li  |
 |Li |   N Li    N    |
 |  Li      Li        |
 |N  .-Li--N----Li----.
 |  / Li Li   Li Li  /
 Li/      Li        /
 |/i       Li      /

[...]

Density initialized from wave functions
 |   |       Li    Li Li
 |   |   N  Li   N   Li
 |   | Li       Li N  |
 |   |Li LiN  Li Li   |
 |Li |   N Li    N    |
 |   |      Li       Li
 |N  | Li  N    Li    |
 |   |Li Li   Li Li   |
 |   |    Li      Li  |
 |Li |   N Li    N    |
 |  Li      Li        |
 |N  .-Li--N----Li----.
 |  / Li Li   Li Li  /
 Li/      Li        /
 |/i       Li      /

[...]

Density initialized from wave functions
 |   |             Li Li
 |   |   N  Li   N   Li
 |   | Li       Li N  |
 |   |Li LiN  Li Li   |
 |   |    Li          |
 |Li |   N Li    N    |
 |   |      Li       Li
 |N  | Li  N    Li    |
 |   |Li Li   Li Li   |
 |   |    Li      Li  |
 |Li |   N Li    N    |
 |  Li      Li        |
 |N  .-Li--N----Li----.
 |  / Li Li   Li Li  /
 Li/      Li        /
 |/i       Li      /

[...]

Density initialized from wave functions
 |   |             Li Li
 |   |   N  Li   N   Li
 |   | Li       Li N  |
 |   |Li LiN  Li Li   |
 |   |    Li          |
 |Li |   N Li    N    |
 |   |      Li       Li
 |N  | Li  N    Li    |
 |   |Li Li   Li Li   |
 |   |    Li      Li  |
 |Li |   N Li    N    |
 |  Li      Li        |
 |N  .-Li--N----Li----.
 |  / Li Li   Li Li  /
 Li/      Li        /
 |/i       Li      /

[...]

Density initialized from wave functions
 |   |             Li |
 |   |   N  Li   N   Li
 |   | Li       Li N  |
 |   |Li LiN  Li Li   |
 |   |    Li      Li  |
 |Li |   N Li    N    |
 |   |      Li       Li
 |N  | Li  N    Li    |
 |   |Li Li   Li Li   |
 |   |    Li      Li  |
 |Li |   N Li    N    |
 |  Li      Li        |
 |N  .-Li--N----Li----.
 |  / Li Li   Li Li  /
 Li/      Li        /
 |/i       Li      /

[...]

Density initialized from wave functions
 |   |             Li |
 |   |   N  Li   N   Li
 |   | Li       Li N  |
 |   |Li LLi  Li Li   |
 |   |            Li  |
 |Li |   N Li    N    |
 |   |      Li       Li
 |N  | Li  N    Li    |
 |   |Li Li   Li Li   |
 |   |    Li      Li  |
 |Li |   N Li    N    |
 |  Li      Li        |
 |N  .-Li--N----Li----.
 |  / Li Li   Li Li  /
 Li/      Li        /
 |/i       Li      /

[...]

Density initialized from wave functions
 |   |             Li |
 |   |   N  Li   N   Li
 |   | Li       Li N  |
 |   |Li LLi  Li Li   |
 |   |            Li  |
 |Li |   N Li    N    |
 |   |      Li       Li
 |N  | Li  N    Li    |
 |   |Li Li   Li Li   |
 |   |    Li      Li  |
 |Li |   N Li    N    |
 |  Li      Li        |
 |N  .-Li--N----Li----.
 |  / Li Li   Li Li  /
 Li/      Li        /
 |/i       Li      /

[...]

Converged after 15 iterations.

Dipole moment: (0.071679, -2.341185, 5.724049) |e|*Ang

Energy contributions relative to reference atoms: (reference = -25283.807400)

Kinetic:       +179.398554
Potential:     -130.520647
External:        +0.000000
XC:            -202.572281
Entropy (-ST):   -0.022641
Local:           -1.032397
Free energy:   -154.749412
Extrapolated:  -154.738092

Non-local vdW-DF-cx correlation energy: 15.305795
Semilocal GGA_X_LV_RPW86+LDA_C_PW energy: -1089.143282
(Not including atomic contributions)
Fermi level: -0.94994

Showing only first 2 kpts
 Kpt  Band  Eigenvalues  Occupancy
  0    46     -1.21887    0.13332
  0    47     -0.85327    0.00511
  0    48     -0.75988    0.00024
  0    49     -0.26574    0.00000

  1    46     -1.31242    0.13333
  1    47     -1.15879    0.13321
  1    48     -0.89950    0.02092
  1    49     -0.30722    0.00000

No gap

Forces in eV/Ang:
  0 Li    0.00026    0.00003   -0.10346
  1 Li    0.00004    0.00004   -0.10282
  2 Li   -0.00003   -0.00001   -0.10301
  3 Li   -0.00028    0.00002   -0.10327
  4 Li    0.00162    0.00304    0.02851
  5 Li   -0.00012    0.00065    0.02690
  6 Li    0.00012   -0.00072    0.02801
  7 Li   -0.00188    0.00344    0.02865
  8 Li    0.00193   -0.00329    0.02901
  9 Li   -0.00002   -0.00130    0.02618
 10 Li    0.00039    0.00010    0.02770
 11 Li   -0.00175   -0.00362    0.02919
 12 Li   -0.08503    0.03200    0.09369
 13 Li   -0.00287    0.01778    0.30728
 14 Li    0.00286    0.02690    0.13929
 15 Li    0.08507    0.03168    0.08467
 16 Li   -0.02244   -0.00195   -0.09603
 17 Li    0.00013   -0.03234   -0.03475
 18 Li    0.00012    0.02982   -0.03409
 19 Li    0.02262   -0.00159   -0.09991
 20 Li   -0.02272    0.00416   -0.09450
 21 Li   -0.00005    0.03604   -0.04226
 22 Li   -0.00005   -0.02661   -0.02620
 23 Li    0.02255    0.00390   -0.09819
 24 Li   -0.06111    0.00479    0.11049
 25 Li   -0.00411    0.01459   -0.02275
 26 Li    0.00302    0.01025    0.08303
 27 Li    0.06522    0.00463    0.12205
 28 Li    0.10995   -0.02818   -0.08135
 29 Li    0.00213    0.03811    0.05113
 30 Li    0.00154    0.08505    0.01691
 31 Li   -0.11110   -0.02852   -0.08236
 32 Li    0.12938    0.03277   -0.08309
 33 Li    0.00188   -0.03446    0.12536
 34 Li    0.00136   -0.04503   -0.01636
 35 Li   -0.13056    0.03283   -0.08280
 36 N    -0.00050    0.01518   -0.13396
 37 N     0.00033    0.01681   -0.12755
 38 N    -0.00034    0.01656   -0.13923
 39 N     0.00024    0.01518   -0.14109
 40 N    -0.05040   -0.00596   -0.00352
 41 N    -0.00067   -0.00726    0.15107
 42 N     0.00063   -0.00882   -0.05670
 43 N     0.05047   -0.00597    0.00455
 44 N    -0.09588   -0.00143    0.10929
 45 N     0.00090   -0.00719    0.01704
 46 N     0.00062    0.00808    0.03835
 47 N     0.09520   -0.00172    0.10394
 48 Li   -0.00824   -0.03817   -0.06767

System changes: positions

Initializing position-dependent things.

Density initialized from wave functions
 |   |   N         Li |
 |   |      Li   N   Li
 |   | Li       Li N  |
 |   |Li LLi  Li Li   |
 |   |            Li  |
 |Li |   N Li    N    |
 |   |      Li       Li
 |N  | Li  N    Li    |
 |   |Li Li   Li Li   |
 |   |    Li      Li  |
 |Li |   N Li    N    |
 |  Li      Li        |
 |N  .-Li--N----Li----.
 |  / Li Li   Li Li  /
 Li/      Li        /
 |/i       Li      /

Positions:
   0 Li     1.753389    5.061850    0.000000    ( 0.0000,  0.0000,  0.0000)
   1 Li     0.000000    2.024928    0.000000    ( 0.0000,  0.0000,  0.0000)
   2 Li     3.506756    2.024928    0.000000    ( 0.0000,  0.0000,  0.0000)
   3 Li     5.260124    5.061850    0.000000    ( 0.0000,  0.0000,  0.0000)
   4 Li     1.753389    3.037256    1.946139    ( 0.0000,  0.0000,  0.0000)
   5 Li     0.000000    0.000334    1.946139    ( 0.0000,  0.0000,  0.0000)
   6 Li     3.506756    0.000334    1.946139    ( 0.0000,  0.0000,  0.0000)
   7 Li     5.260124    3.037256    1.946139    ( 0.0000,  0.0000,  0.0000)
   8 Li     1.753367    1.012631    1.946139    ( 0.0000,  0.0000,  0.0000)
   9 Li     0.000000    4.049553    1.946139    ( 0.0000,  0.0000,  0.0000)
  10 Li     3.506735    4.049553    1.946139    ( 0.0000,  0.0000,  0.0000)
  11 Li     5.260103    1.012631    1.946139    ( 0.0000,  0.0000,  0.0000)
  12 Li     1.753389    5.061850    3.920419    ( 0.0000,  0.0000,  0.0000)
  13 Li     0.000000    2.024928    3.920419    ( 0.0000,  0.0000,  0.0000)
  14 Li     3.506756    2.024928    3.920419    ( 0.0000,  0.0000,  0.0000)
  15 Li     5.260124    5.061850    3.920419    ( 0.0000,  0.0000,  0.0000)
  16 Li     1.754840    3.072966    5.947548    ( 0.0000,  0.0000,  0.0000)
  17 Li    -0.000077    0.032469    5.929067    ( 0.0000,  0.0000,  0.0000)
  18 Li     3.506719    0.040917    5.800576    ( 0.0000,  0.0000,  0.0000)
  19 Li     5.258589    3.072286    5.951732    ( 0.0000,  0.0000,  0.0000)
  20 Li     1.754245    1.045448    5.957459    ( 0.0000,  0.0000,  0.0000)
  21 Li    -0.000076    4.089726    5.912759    ( 0.0000,  0.0000,  0.0000)
  22 Li     3.506700    4.076281    5.799345    ( 0.0000,  0.0000,  0.0000)
  23 Li     5.259148    1.046067    5.961915    ( 0.0000,  0.0000,  0.0000)
  24 Li     1.937313    5.089033    7.875714    ( 0.0000,  0.0000,  0.0000)
  25 Li     0.007345    2.097274    7.910537    ( 0.0000,  0.0000,  0.0000)
  26 Li     3.500127    2.059245    7.851185    ( 0.0000,  0.0000,  0.0000)
  27 Li     5.075561    5.088608    7.864437    ( 0.0000,  0.0000,  0.0000)
  28 Li     1.772657    3.100265    9.820617    ( 0.0000,  0.0000,  0.0000)
  29 Li    -0.001512    0.039599    9.804445    ( 0.0000,  0.0000,  0.0000)
  30 Li     3.508580    0.065195   10.337585    ( 0.0000,  0.0000,  0.0000)
  31 Li     5.238933    3.100188    9.803515    ( 0.0000,  0.0000,  0.0000)
  32 Li     1.781947    1.039096    9.788567    ( 0.0000,  0.0000,  0.0000)
  33 Li    -0.001947    4.110088    9.928076    ( 0.0000,  0.0000,  0.0000)
  34 Li     3.508087    4.087404   10.261408    ( 0.0000,  0.0000,  0.0000)
  35 Li     5.229374    1.039058    9.770371    ( 0.0000,  0.0000,  0.0000)
  36 N      1.753389    5.061910    1.929076    ( 0.0000,  0.0000,  0.0000)
  37 N      0.000000    2.024989    1.929076    ( 0.0000,  0.0000,  0.0000)
  38 N      3.506756    2.024989    1.929076    ( 0.0000,  0.0000,  0.0000)
  39 N      5.260124    5.061910    1.929076    ( 0.0000,  0.0000,  0.0000)
  40 N      1.767484    5.097932    5.861552    ( 0.0000,  0.0000,  0.0000)
  41 N      0.000489    2.063687    5.907300    ( 0.0000,  0.0000,  0.0000)
  42 N      3.506306    2.061075    5.869828    ( 0.0000,  0.0000,  0.0000)
  43 N      5.246058    5.097944    5.859156    ( 0.0000,  0.0000,  0.0000)
  44 N      1.780991    5.112327    9.822393    ( 0.0000,  0.0000,  0.0000)
  45 N     -0.001029    2.073625    9.874250    ( 0.0000,  0.0000,  0.0000)
  46 N      3.505387    2.074388    9.765174    ( 0.0000,  0.0000,  0.0000)
  47 N      5.230287    5.112254    9.801780    ( 0.0000,  0.0000,  0.0000)
  48 Li     7.006704    1.993216   11.760076    ( 0.0000,  0.0000,  0.0000)

Unit cell:
           periodic     x           y           z      points  spacing
  1. axis:    yes    7.013470    0.000000    0.000000    40     0.1753
  2. axis:    yes    0.000000    6.073843    0.000000    32     0.1898
  3. axis:    yes    0.000000    0.000000   29.936001   160     0.1871

  Lengths:   7.013470   6.073843  29.936001
  Angles:   90.000000  90.000000  90.000000

Effective grid spacing dv^(1/3) = 0.1840

                     log10-error:    total        iterations:
           time      wfs    density  energy       fermi  poisson
iter:   1  10:06:35  -2.99         -154.782481    4
iter:   2  10:06:46  -3.71  -2.10  -154.772414    4
iter:   3  10:06:57  -4.55  -2.07  -154.754816    4
iter:   4  10:07:08  -5.01  -2.60  -154.750261    3
iter:   5  10:07:19  -4.78  -2.70  -154.748989    2
iter:   6  10:07:30  -4.48  -2.74  -154.754627    4
iter:   7  10:07:42  -5.46  -2.68  -154.750635    4
iter:   8  10:07:53  -5.04  -3.00  -154.748695    3
iter:   9  10:08:04  -5.52  -2.86  -154.750193    3
iter:  10  10:08:15  -6.39  -3.23  -154.749238    3
iter:  11  10:08:26  -5.81  -3.51  -154.748723    3