User:   jngwng01@n944031
Date:   Tue Sep  7 09:23:09 2021
Arch:   x86_64
Pid:    25070
Python: 3.8.5
gpaw:   /uls/7/gpaw-20.1.0/lib/python3.8/site-packages/gpaw-20.1.0-py3.8-linux-x86_64.egg/gpaw
_gpaw:  /uls/7/gpaw-20.1.0/lib/python3.8/site-packages/gpaw-20.1.0-py3.8-linux-x86_64.egg/
        _gpaw.cpython-38-x86_64-linux-gnu.so
ase:    /uls/7/gpaw-20.1.0/lib/python3.8/site-packages/ase-3.20.1-py3.8.egg/ase (version 3.20.1)
numpy:  /uls/7/gpaw-20.1.0/lib/python3.8/site-packages/numpy (version 1.19.2)
scipy:  /uls/7/gpaw-20.1.0/lib/python3.8/site-packages/scipy-1.5.2-py3.8-linux-x86_64.egg/scipy (version 1.5.2)
units:  Angstrom and eV
cores: 16
OMP_NUM_THREADS: 1

Input parameters:
  convergence: {density: 0.0001,
                eigenstates: 1e-07}
  kpts: [5 5 1]
  mode: {ecut: 500.0,
         gammacentered: False,
         name: pw}
  occupations: {name: fermi-dirac,
                width: 0.05}
  xc: PBE

System changes: positions, numbers, cell, pbc, initial_charges, initial_magmoms

Initialize ...

Li-setup:
  name: Lithium
  id: 830b4218f175192f93f959cfc0aad614
  Z: 3
  valence: 1
  core: 2
  charge: 0.0
  file: /uls/7/gpaw-20.1.0/setups/gpaw-setups-0.9.20000/Li.PBE.gz
  compensation charges: gauss, rc=0.33, lmax=2
  cutoffs: 1.91(filt), 2.55(core),
  valence states:
                energy  radius
    2s(1.00)    -2.874   1.058
    2p(0.00)    -1.090   1.058
    *s          24.337   1.058

  Using partial waves for Li as LCAO basis

N-setup:
  name: Nitrogen
  id: f7500608b86eaa90eef8b1d9a670dc53
  Z: 7
  valence: 5
  core: 2
  charge: 0.0
  file: /uls/7/gpaw-20.1.0/setups/gpaw-setups-0.9.20000/N.PBE.gz
  compensation charges: gauss, rc=0.18, lmax=2
  cutoffs: 1.11(filt), 0.96(core),
  valence states:
                energy  radius
    2s(2.00)   -18.583   0.603
    2p(3.00)    -7.089   0.529
    *s           8.629   0.603
    *p          20.123   0.529
    *d           0.000   0.577

  Using partial waves for N as LCAO basis

Reference energy: -33644.147259

Spin-paired calculation

Occupation numbers:
  Fermi-Dirac: width=0.0500 eV

Convergence criteria:
  Maximum total energy change: 0.0005 eV / electron
  Maximum integral of absolute density change: 0.0001 electrons
  Maximum integral of absolute eigenstate change: 1e-07 eV^2
  Maximum number of iterations: 333

Symmetries present (total): 1

  ( 1  0  0)
  ( 0  1  0)
  ( 0  0  1)

25 k-points: 5 x 5 x 1 Monkhorst-Pack grid
13 k-points in the irreducible part of the Brillouin zone
       k-points in crystal coordinates                weights
   0:     0.00000000    0.00000000    0.00000000          1/25
   1:     0.00000000    0.20000000    0.00000000          2/25
   2:     0.00000000    0.40000000    0.00000000          2/25
   3:     0.20000000   -0.40000000    0.00000000          2/25
   4:     0.20000000   -0.20000000    0.00000000          2/25
   5:     0.20000000    0.00000000    0.00000000          2/25
   6:     0.20000000    0.20000000    0.00000000          2/25
   7:     0.20000000    0.40000000    0.00000000          2/25
   8:     0.40000000   -0.40000000    0.00000000          2/25
   9:     0.40000000   -0.20000000    0.00000000          2/25
          ...
  12:     0.40000000    0.40000000    0.00000000          2/25

Wave functions: Plane wave expansion
  Cutoff energy: 500.000 eV
  Number of coefficients (min, max): 32263, 32394
  Pulay-stress correction: 0.000000 eV/Ang^3 (de/decut=0.000000)
  Using FFTW library
  ScaLapack parameters: grid=1x1, blocksize=None
  Wavefunction extrapolation:
    Improved wavefunction reuse through dual PAW basis

Eigensolver
   Davidson(niter=2, smin=None, normalize=True)

Densities:
  Coarse grid: 40*40*160 grid
  Fine grid: 80*80*320 grid
  Total Charge: 0.000000

Density mixing:
  Method: separate
  Backend: pulay
  Linear mixing parameter: 0.05
  Mixing with 5 old densities
  Damping of long wave oscillations: 50

Hamiltonian:
  XC and Coulomb potentials evaluated on a 80*80*320 grid
  Using the PBE Exchange-Correlation functional

XC parameters: PBE with 2 nearest neighbor stencil

Total number of cores used: 16
Parallelization over k-points: 8
Domain decomposition: 1 x 1 x 2
                      2 x 2 x 4 (xc only)

Number of atoms: 65
Number of atomic orbitals: 260
Number of bands in calculation: 82
Number of valence electrons: 129
Bands to converge: occupied

... initialized

Initializing position-dependent things.

Density initialized from atomic densities
Creating initial wave functions:
  82 bands from LCAO basis set

                   Li
           Li    Li       Li
              N   Li   N
             Li       Li
              LiN   Li LiN  Li

           Li N Li Li    Li
                  Li   N  Li
             Li      Li  N
              LiN   Li Li   Li

           Li N Li Li  N Li
                  Li      Li
             Li N    Li  N
              Li    Li Li   Li
           Li      Li
              N Li     N Li
             Li   Li Li   Li
                N        N
              Li    Li Li   Li

                Li       Li

Positions:
   0 Li     1.753189    1.012426    1.530029    ( 0.0000,  0.0000,  0.0000)
   1 Li    -0.000191    4.049369    1.530029    ( 0.0000,  0.0000,  0.0000)
   2 Li     5.259899    1.012426    1.530029    ( 0.0000,  0.0000,  0.0000)
   3 Li     3.506519    4.049369    1.530029    ( 0.0000,  0.0000,  0.0000)
   4 Li     1.754028    1.017831   13.185567    ( 0.0000,  0.0000,  0.0000)
   5 Li     0.004008    4.049614   13.305259    ( 0.0000,  0.0000,  0.0000)
   6 Li     5.257448    1.014105   13.305209    ( 0.0000,  0.0000,  0.0000)
   7 Li     3.501640    4.046269   13.285953    ( 0.0000,  0.0000,  0.0000)
   8 Li     3.573046   -0.049214   15.256336    ( 0.0000,  0.0000,  0.0000)
   9 Li     1.741959    3.115655   15.113963    ( 0.0000,  0.0000,  0.0000)
  10 Li     6.948093   -0.024948   15.113051    ( 0.0000,  0.0000,  0.0000)
  11 Li     5.278662    3.039408   15.953860    ( 0.0000,  0.0000,  0.0000)
  12 Li    -0.078730    2.059434   15.257355    ( 0.0000,  0.0000,  0.0000)
  13 Li    -1.744290    4.994153   15.110104    ( 0.0000,  0.0000,  0.0000)
  14 Li     3.578167    2.055318   15.110678    ( 0.0000,  0.0000,  0.0000)
  15 Li     1.744415    5.079437   15.958926    ( 0.0000,  0.0000,  0.0000)
  16 Li     3.506465    0.000182    3.465092    ( 0.0000,  0.0000,  0.0000)
  17 Li     1.753085    3.037125    3.465092    ( 0.0000,  0.0000,  0.0000)
  18 Li     7.013175    0.000182    3.465092    ( 0.0000,  0.0000,  0.0000)
  19 Li     5.259795    3.037125    3.465092    ( 0.0000,  0.0000,  0.0000)
  20 Li    -0.000262    2.024791    3.465092    ( 0.0000,  0.0000,  0.0000)
  21 Li    -1.753642    5.061734    3.465092    ( 0.0000,  0.0000,  0.0000)
  22 Li     3.506448    2.024791    3.465092    ( 0.0000,  0.0000,  0.0000)
  23 Li     1.753068    5.061734    3.465092    ( 0.0000,  0.0000,  0.0000)
  24 Li     1.753084    1.012487    5.431887    ( 0.0000,  0.0000,  0.0000)
  25 Li    -0.000296    4.049430    5.431887    ( 0.0000,  0.0000,  0.0000)
  26 Li     5.259794    1.012487    5.431887    ( 0.0000,  0.0000,  0.0000)
  27 Li     3.506414    4.049430    5.431887    ( 0.0000,  0.0000,  0.0000)
  28 Li     3.506429    0.000182    7.378027    ( 0.0000,  0.0000,  0.0000)
  29 Li     1.753049    3.037125    7.378027    ( 0.0000,  0.0000,  0.0000)
  30 Li     7.013139    0.000182    7.378027    ( 0.0000,  0.0000,  0.0000)
  31 Li     5.259759    3.037125    7.378027    ( 0.0000,  0.0000,  0.0000)
  32 Li    -0.000297    2.024791    7.378027    ( 0.0000,  0.0000,  0.0000)
  33 Li    -1.753677    5.061734    7.378027    ( 0.0000,  0.0000,  0.0000)
  34 Li     3.506413    2.024791    7.378027    ( 0.0000,  0.0000,  0.0000)
  35 Li     1.753033    5.061734    7.378027    ( 0.0000,  0.0000,  0.0000)
  36 Li     1.753366    1.013932    9.319298    ( 0.0000,  0.0000,  0.0000)
  37 Li     0.000213    4.049424    9.353388    ( 0.0000,  0.0000,  0.0000)
  38 Li     5.259076    1.012626    9.353381    ( 0.0000,  0.0000,  0.0000)
  39 Li     3.505202    4.048954    9.348074    ( 0.0000,  0.0000,  0.0000)
  40 Li     3.508522   -0.001225   11.286884    ( 0.0000,  0.0000,  0.0000)
  41 Li     1.751866    3.040952   11.266196    ( 0.0000,  0.0000,  0.0000)
  42 Li     7.010102   -0.000274   11.267873    ( 0.0000,  0.0000,  0.0000)
  43 Li     5.260145    3.038052   11.380775    ( 0.0000,  0.0000,  0.0000)
  44 Li    -0.004194    2.026853   11.286774    ( 0.0000,  0.0000,  0.0000)
  45 Li    -1.753892    5.059565   11.268106    ( 0.0000,  0.0000,  0.0000)
  46 Li     3.509062    2.026514   11.266390    ( 0.0000,  0.0000,  0.0000)
  47 Li     1.752183    5.063393   11.380493    ( 0.0000,  0.0000,  0.0000)
  48 N      1.753084    1.012487    3.439048    ( 0.0000,  0.0000,  0.0000)
  49 N     -0.000296    4.049430    3.439048    ( 0.0000,  0.0000,  0.0000)
  50 N      5.259794    1.012487    3.439048    ( 0.0000,  0.0000,  0.0000)
  51 N      3.506414    4.049430    3.439048    ( 0.0000,  0.0000,  0.0000)
  52 N      1.753031    1.012517    7.360963    ( 0.0000,  0.0000,  0.0000)
  53 N     -0.000349    4.049460    7.360963    ( 0.0000,  0.0000,  0.0000)
  54 N      5.259741    1.012517    7.360963    ( 0.0000,  0.0000,  0.0000)
  55 N      3.506361    4.049460    7.360963    ( 0.0000,  0.0000,  0.0000)
  56 N      1.752595    1.013451   11.233724    ( 0.0000,  0.0000,  0.0000)
  57 N     -0.000706    4.050165   11.307592    ( 0.0000,  0.0000,  0.0000)
  58 N      5.259186    1.013249   11.307577    ( 0.0000,  0.0000,  0.0000)
  59 N      3.505622    4.049967   11.295580    ( 0.0000,  0.0000,  0.0000)
  60 N      1.746875    1.005041   15.069708    ( 0.0000,  0.0000,  0.0000)
  61 N     -0.004423    4.055944   15.289550    ( 0.0000,  0.0000,  0.0000)
  62 N      5.264727    1.013813   15.289436    ( 0.0000,  0.0000,  0.0000)
  63 N      3.507748    4.053793   15.258581    ( 0.0000,  0.0000,  0.0000)
  64 Li     1.993740    1.413648   17.024849    ( 0.0000,  0.0000,  0.0000)

Unit cell:
           periodic     x           y           z      points  spacing
  1. axis:    yes    7.013420    0.000000    0.000000    40     0.1518
  2. axis:    yes   -3.506760    6.073886    0.000000    40     0.1518
  3. axis:    yes    0.000000    0.000000   29.936001   160     0.1871

  Lengths:   7.013420   7.013520  29.936001
  Angles:   90.000000  90.000000 120.000000

Effective grid spacing dv^(1/3) = 0.1708

                     log10-error:    total        iterations:
           time      wfs    density  energy       fermi  poisson
iter:   1  09:24:44                -275.397956    4
iter:   2  09:25:24  -1.00  -0.51  -262.898534    5
iter:   3  09:26:04  -0.41  -0.57  -280.362157    31
iter:   4  09:26:45  -1.86  -0.53  -252.516150    35
iter:   5  09:27:25  -2.71  -0.71  -250.498434    3
iter:   6  09:28:05  -1.24  -0.72  -249.003123    31
iter:   7  09:28:44  -1.31  -0.78  -243.038023    32
iter:   8  09:29:25  -1.41  -0.88  -238.803320    3
iter:   9  09:30:07  -1.83  -0.97  -240.274095    5
iter:  10  09:30:48  -1.76  -0.92  -238.809911    4
iter:  11  09:31:28  -2.23  -0.93  -236.853181    33
iter:  12  09:32:08  -1.47  -0.97  -244.957159    36
iter:  13  09:32:48  -0.19  -0.88  -353.032446    34
iter:  14  09:33:29  -1.49  -0.42  -277.588710    33
iter:  15  09:34:09  -1.97  -0.57  -263.787967    3
iter:  16  09:34:49  -0.75  -0.62  -233.381417    34
iter:  17  09:35:28  -0.95  -1.10  -233.162441    33
iter:  18  09:36:09  -1.15  -1.18  -232.825560    32
iter:  19  09:36:49  -0.70  -1.23  -234.175973    4
iter:  20  09:37:28  -0.64  -1.24  -236.254858    33
iter:  21  09:38:08  -0.91  -1.30  -236.237757    32
iter:  22  09:38:48  -1.06  -1.26  -238.371385    31
iter:  23  09:39:27  -1.91  -1.27  -236.372610    5
iter:  24  09:40:07  -1.55  -1.34  -242.272138    36
iter:  25  09:40:46  -2.74  -0.99  -235.579039    30
iter:  26  09:41:27  -2.83  -1.44  -235.134691    3
iter:  27  09:42:07  -2.79  -1.49  -234.850227    32
iter:  28  09:42:48  -3.61  -1.57  -234.773576    3
iter:  29  09:43:29  -2.55  -1.62  -234.763442    3
iter:  30  09:44:09  -3.92  -1.77  -234.722705    3
iter:  31  09:44:49  -2.63  -1.85  -234.943510    3
iter:  32  09:45:29  -2.57  -1.70  -234.784546    3
iter:  33  09:46:09  -3.45  -1.97  -234.715347    3
iter:  34  09:46:50  -4.56  -2.36  -234.715117    2
iter:  35  09:47:30  -4.60  -2.46  -234.713695    3
iter:  36  09:48:10  -4.52  -2.48  -234.715944    3
iter:  37  09:48:50  -4.17  -2.61  -234.713335    3
iter:  38  09:49:30  -5.07  -2.61  -234.715644    2
iter:  39  09:50:09  -4.84  -2.79  -234.713830    3
iter:  40  09:50:50  -5.65  -3.01  -234.714738    2
iter:  41  09:51:30  -6.01  -3.09  -234.714587    2
iter:  42  09:52:10  -5.69  -3.14  -234.714102    3
iter:  43  09:52:49  -6.13  -3.27  -234.714168    2
iter:  44  09:53:30  -6.20  -3.44  -234.714704    2
iter:  45  09:54:10  -6.36  -3.66  -234.714482    2
iter:  46  09:54:51  -7.09  -3.71  -234.714571    2
iter:  47  09:55:31  -7.79  -3.82  -234.714511    2
iter:  48  09:56:12  -7.72  -3.87  -234.714593    2
iter:  49  09:56:52  -7.25  -3.95  -234.714466    2
iter:  50  09:57:33  -7.81  -4.08  -234.714523    2

Converged after 50 iterations.

Dipole moment: (-2.358379, 1.266873, -11.337274) |e|*Ang

Energy contributions relative to reference atoms: (reference = -33644.147259)

Kinetic:       +256.671903
Potential:     -189.688356
External:        +0.000000
XC:            -300.367434
Entropy (-ST):   -0.075058
Local:           -1.293108
Free energy:   -234.752052
Extrapolated:  -234.714523

Fermi level: -0.23478

Showing only first 2 kpts
 Kpt  Band  Eigenvalues  Occupancy
  0    62     -0.53437    0.07980
  0    63     -0.02642    0.00122
  0    64     -0.00033    0.00073
  0    65      0.21429    0.00001

  1    62     -0.60401    0.15990
  1    63     -0.28848    0.11926
  1    64     -0.11696    0.01385
  1    65      0.38753    0.00000

No gap

Forces in eV/Ang:
  0 Li   -0.00007    0.00006   -0.04718
  1 Li   -0.00007    0.00005   -0.04738
  2 Li   -0.00008    0.00005   -0.04738
  3 Li   -0.00008    0.00005   -0.04733
  4 Li   -0.00132   -0.00279   -0.06095
  5 Li   -0.00093   -0.00462    0.06831
  6 Li   -0.00469    0.00208    0.06830
  7 Li    0.00168   -0.00202    0.00510
  8 Li   -0.19000    0.18961   -0.22321
  9 Li    0.03033    0.06503   -0.28103
 10 Li    0.16557   -0.04116    0.11232
 11 Li   -0.24748    0.13678    0.21677
 12 Li    0.27405   -0.07954   -0.21888
 13 Li   -0.12492    0.12168    0.11193
 14 Li    0.04129    0.06490   -0.28494
 15 Li    0.23104   -0.13737    0.20649
 16 Li   -0.00000   -0.00011   -0.04173
 17 Li   -0.00002   -0.00014   -0.04175
 18 Li    0.00002   -0.00008   -0.04181
 19 Li    0.00003   -0.00013   -0.04168
 20 Li   -0.00006    0.00006   -0.04173
 21 Li   -0.00005    0.00010   -0.04182
 22 Li   -0.00009    0.00004   -0.04176
 23 Li   -0.00010    0.00009   -0.04166
 24 Li    0.00006    0.00014   -0.05261
 25 Li    0.00010   -0.00003   -0.04638
 26 Li   -0.00008    0.00002   -0.04639
 27 Li   -0.00012   -0.00012   -0.04749
 28 Li    0.00380   -0.00247    0.00373
 29 Li   -0.00116    0.00440    0.00024
 30 Li   -0.00401   -0.00128    0.00320
 31 Li    0.00081   -0.00029    0.01089
 32 Li   -0.00454    0.00250    0.00379
 33 Li    0.00054   -0.00388    0.00368
 34 Li    0.00413    0.00160    0.00071
 35 Li   -0.00110    0.00094    0.00989
 36 Li   -0.00227   -0.00454   -0.01609
 37 Li   -0.00327    0.00157    0.00714
 38 Li    0.00206   -0.00014    0.00712
 39 Li    0.00362    0.00387   -0.00045
 40 Li   -0.01168    0.01055    0.00932
 41 Li    0.00224   -0.01032    0.01092
 42 Li    0.00892    0.00385    0.00495
 43 Li   -0.00740    0.00051    0.00859
 44 Li    0.01560   -0.00511    0.00894
 45 Li   -0.00129    0.00984    0.00605
 46 Li   -0.01042   -0.00315    0.01193
 47 Li    0.00386   -0.00615    0.00503
 48 N    -0.00025    0.00007    0.07797
 49 N    -0.00023    0.00019    0.08814
 50 N    -0.00017    0.00018    0.08815
 51 N    -0.00011    0.00025    0.08298
 52 N     0.00047    0.00116   -0.04626
 53 N     0.00078   -0.00024    0.07847
 54 N    -0.00062    0.00010    0.07847
 55 N    -0.00102   -0.00085    0.06291
 56 N    -0.00218   -0.00281   -0.04086
 57 N     0.00037    0.00125   -0.01209
 58 N     0.00125   -0.00071   -0.01200
 59 N     0.00178    0.00459   -0.00911
 60 N     0.19292    0.32176    0.96075
 61 N     0.10709   -0.16568    0.04527
 62 N    -0.19677    0.00088    0.04881
 63 N    -0.12551   -0.21407   -0.02748
 64 Li   -0.15541   -0.25791   -0.61407

System changes: positions

[...]

Density initialized from wave functions

[...]

           Li N Li Li    Li
                  Li   N  Li
             Li      Li  N
              LiN   Li Li   Li

[...]

           Li N Li Li  N Li
                  Li      Li
             Li      Li  N
              LiN   Li Li   Li

[...]

                   Li
           Li    Li       Li
              N   Li   N
             Li       Li
              LiN   Li LiN  Li

[...]

                   Li
           Li N  Li       Li
                  Li   N
             Li       Li
              LiN   Li LiN  Li

           Li N Li Li  N Li
                  Li      Li
             Li N    Li  N
              Li    Li Li   Li

[...]

                   Li
           Li N  Li       Li
                  Li   N
             Li       Li N
              LiN   Li Li   Li

[...]

                   Li
           Li N  Li       Li
                  Li   N
             Li       Li N
              LiN   Li Li   Li

[...]

                   Li
           Li N  Li    N  Li
                  Li
             Li       Li N
              LiN   Li Li   Li

[...]

           Li N Li Li  N Li
                  Li      Li
             Li N    Li  N
              Li    Li Li   Li

[...]

System changes: positions

Initializing position-dependent things.

Density initialized from wave functions

                   Li
          Li  N  Li    N  Li
                  Li
             Li       Li N
              LiN   Li Li   Li

           Li N Li Li  N Li
                  Li      Li
             Li      Li  N
              LiN   Li Li   Li

           Li N Li Li  N Li
                  Li      Li
             Li N    Li  N
              Li    Li Li   Li
           Li      Li
              N Li     N Li
             Li   Li Li   Li
                N        N
              Li    Li Li   Li

                Li       Li

Positions:
   0 Li     1.753189    1.012426    1.530029    ( 0.0000,  0.0000,  0.0000)
   1 Li    -0.000191    4.049369    1.530029    ( 0.0000,  0.0000,  0.0000)
   2 Li     5.259899    1.012426    1.530029    ( 0.0000,  0.0000,  0.0000)
   3 Li     3.506519    4.049369    1.530029    ( 0.0000,  0.0000,  0.0000)
   4 Li     1.721566    0.963927   13.187997    ( 0.0000,  0.0000,  0.0000)
   5 Li    -0.056086    4.062214   13.314412    ( 0.0000,  0.0000,  0.0000)
   6 Li     5.300333    0.971962   13.314815    ( 0.0000,  0.0000,  0.0000)
   7 Li     3.543433    4.119869   13.327572    ( 0.0000,  0.0000,  0.0000)
   8 Li     3.576829   -0.037819   15.127473    ( 0.0000,  0.0000,  0.0000)
   9 Li     1.751128    3.145391   15.026521    ( 0.0000,  0.0000,  0.0000)
  10 Li     6.951267   -0.031116   15.247318    ( 0.0000,  0.0000,  0.0000)
  11 Li     5.239257    2.999587   16.104121    ( 0.0000,  0.0000,  0.0000)
  12 Li    -0.070532    2.068267   15.134327    ( 0.0000,  0.0000,  0.0000)
  13 Li    -1.752693    4.993567   15.243047    ( 0.0000,  0.0000,  0.0000)
  14 Li     3.599435    2.079783   15.021027    ( 0.0000,  0.0000,  0.0000)
  15 Li     1.725625    5.028493   16.103638    ( 0.0000,  0.0000,  0.0000)
  16 Li     3.506465    0.000182    3.465092    ( 0.0000,  0.0000,  0.0000)
  17 Li     1.753085    3.037125    3.465092    ( 0.0000,  0.0000,  0.0000)
  18 Li     7.013175    0.000182    3.465092    ( 0.0000,  0.0000,  0.0000)
  19 Li     5.259795    3.037125    3.465092    ( 0.0000,  0.0000,  0.0000)
  20 Li    -0.000262    2.024791    3.465092    ( 0.0000,  0.0000,  0.0000)
  21 Li    -1.753642    5.061734    3.465092    ( 0.0000,  0.0000,  0.0000)
  22 Li     3.506448    2.024791    3.465092    ( 0.0000,  0.0000,  0.0000)
  23 Li     1.753068    5.061734    3.465092    ( 0.0000,  0.0000,  0.0000)
  24 Li     1.753084    1.012487    5.431887    ( 0.0000,  0.0000,  0.0000)
  25 Li    -0.000296    4.049430    5.431887    ( 0.0000,  0.0000,  0.0000)
  26 Li     5.259794    1.012487    5.431887    ( 0.0000,  0.0000,  0.0000)
  27 Li     3.506414    4.049430    5.431887    ( 0.0000,  0.0000,  0.0000)
  28 Li     3.506429    0.000182    7.378027    ( 0.0000,  0.0000,  0.0000)
  29 Li     1.753049    3.037125    7.378027    ( 0.0000,  0.0000,  0.0000)
  30 Li     7.013139    0.000182    7.378027    ( 0.0000,  0.0000,  0.0000)
  31 Li     5.259759    3.037125    7.378027    ( 0.0000,  0.0000,  0.0000)
  32 Li    -0.000297    2.024791    7.378027    ( 0.0000,  0.0000,  0.0000)
  33 Li    -1.753677    5.061734    7.378027    ( 0.0000,  0.0000,  0.0000)
  34 Li     3.506413    2.024791    7.378027    ( 0.0000,  0.0000,  0.0000)
  35 Li     1.753033    5.061734    7.378027    ( 0.0000,  0.0000,  0.0000)
  36 Li     1.757821    1.021083    9.316979    ( 0.0000,  0.0000,  0.0000)
  37 Li     0.005079    4.046299    9.358107    ( 0.0000,  0.0000,  0.0000)
  38 Li     5.252782    1.015737    9.358210    ( 0.0000,  0.0000,  0.0000)
  39 Li     3.499357    4.038115    9.363693    ( 0.0000,  0.0000,  0.0000)
  40 Li     3.507079   -0.001381   11.274376    ( 0.0000,  0.0000,  0.0000)
  41 Li     1.751324    3.037093   11.318402    ( 0.0000,  0.0000,  0.0000)
  42 Li     7.007973   -0.002300   11.257428    ( 0.0000,  0.0000,  0.0000)
  43 Li     5.256658    3.033271   11.416312    ( 0.0000,  0.0000,  0.0000)
  44 Li    -0.004178    2.025949   11.268579    ( 0.0000,  0.0000,  0.0000)
  45 Li    -1.755060    5.056772   11.254796    ( 0.0000,  0.0000,  0.0000)
  46 Li     3.505596    2.024533   11.315233    ( 0.0000,  0.0000,  0.0000)
  47 Li     1.749251    5.058257   11.411615    ( 0.0000,  0.0000,  0.0000)
  48 N      1.753084    1.012487    3.439048    ( 0.0000,  0.0000,  0.0000)
  49 N     -0.000296    4.049430    3.439048    ( 0.0000,  0.0000,  0.0000)
  50 N      5.259794    1.012487    3.439048    ( 0.0000,  0.0000,  0.0000)
  51 N      3.506414    4.049430    3.439048    ( 0.0000,  0.0000,  0.0000)
  52 N      1.753031    1.012517    7.360963    ( 0.0000,  0.0000,  0.0000)
  53 N     -0.000349    4.049460    7.360963    ( 0.0000,  0.0000,  0.0000)
  54 N      5.259741    1.012517    7.360963    ( 0.0000,  0.0000,  0.0000)
  55 N      3.506361    4.049460    7.360963    ( 0.0000,  0.0000,  0.0000)
  56 N      1.749717    1.009110   11.232289    ( 0.0000,  0.0000,  0.0000)
  57 N     -0.005562    4.048554   11.316109    ( 0.0000,  0.0000,  0.0000)
  58 N      5.259874    1.008655   11.316366    ( 0.0000,  0.0000,  0.0000)
  59 N      3.506277    4.051691   11.328048    ( 0.0000,  0.0000,  0.0000)
  60 N      1.756420    1.021403   15.097363    ( 0.0000,  0.0000,  0.0000)
  61 N     -0.005482    4.043092   15.296700    ( 0.0000,  0.0000,  0.0000)
  62 N      5.253054    1.006892   15.297484    ( 0.0000,  0.0000,  0.0000)
  63 N      3.498396    4.039799   15.315381    ( 0.0000,  0.0000,  0.0000)
  64 Li     1.940456    1.317182   16.913981    ( 0.0000,  0.0000,  0.0000)

Unit cell:
           periodic     x           y           z      points  spacing
  1. axis:    yes    7.013420    0.000000    0.000000    40     0.1518
  2. axis:    yes   -3.506760    6.073886    0.000000    40     0.1518
  3. axis:    yes    0.000000    0.000000   29.936001   160     0.1871

  Lengths:   7.013420   7.013520  29.936001
  Angles:   90.000000  90.000000 120.000000

Effective grid spacing dv^(1/3) = 0.1708

                     log10-error:    total        iterations:
           time      wfs    density  energy       fermi  poisson
iter:   1  17:01:33  -4.40         -234.910428    3
iter:   2  17:02:13  -5.68  -3.09  -234.909918    2
iter:   3  17:02:53  -6.25  -3.13  -234.910387    2
iter:   4  17:03:34  -5.52  -3.24  -234.909069    3
iter:   5  17:04:15  -6.61  -3.39  -234.909650    2
iter:   6  17:04:55  -6.05  -3.77  -234.909679    2
iter:   7  17:05:35  -7.35  -3.82  -234.909676    2
iter:   8  17:06:15  -6.73  -3.85  -234.909647    2
iter:   9  17:06:55  -7.75  -4.35  -234.909608    2

Converged after 9 iterations.

Dipole moment: (-1.547147, 1.022918, -11.336877) |e|*Ang

Energy contributions relative to reference atoms: (reference = -33644.147259)

Kinetic:       +255.384248
Potential:     -189.066213
External:        +0.000000
XC:            -299.905540
Entropy (-ST):   -0.076135
Local:           -1.284035
Free energy:   -234.947676
Extrapolated:  -234.909608

Fermi level: -0.20245

Showing only first 2 kpts
 Kpt  Band  Eigenvalues  Occupancy
  0    62     -0.56391    0.07994
  0    63      0.01526    0.00102
  0    64      0.01979    0.00093
  0    65      0.22228    0.00002

  1    62     -0.64391    0.15998
  1    63     -0.26488    0.12433
  1    64     -0.08922    0.01506
  1    65      0.40910    0.00000

No gap

Forces in eV/Ang:
  0 Li   -0.00007    0.00006   -0.05278
  1 Li   -0.00007    0.00005   -0.05302
  2 Li   -0.00008    0.00005   -0.05302
  3 Li   -0.00008    0.00004   -0.05305
  4 Li   -0.00416   -0.00628    0.01645
  5 Li   -0.00789    0.00076    0.00370
  6 Li    0.00509   -0.00664    0.00352
  7 Li    0.00422    0.00878   -0.00166
  8 Li    0.00338   -0.00364    0.00273
  9 Li   -0.00458   -0.00286   -0.00808
 10 Li   -0.00623   -0.00311    0.00336
 11 Li   -0.00407   -0.00103    0.00779
 12 Li   -0.00495    0.00131    0.00313
 13 Li   -0.00001   -0.00710    0.00275
 14 Li   -0.00040   -0.00474   -0.00895
 15 Li    0.00043   -0.00407    0.00797
 16 Li    0.00002   -0.00010   -0.04402
 17 Li    0.00001   -0.00012   -0.04378
 18 Li   -0.00001   -0.00010   -0.04424
 19 Li   -0.00000   -0.00015   -0.04385
 20 Li   -0.00007    0.00010   -0.04403
 21 Li   -0.00005    0.00007   -0.04424
 22 Li   -0.00008    0.00007   -0.04378
 23 Li   -0.00010    0.00005   -0.04385
 24 Li    0.00031    0.00050   -0.06117
 25 Li    0.00029   -0.00012   -0.05379
 26 Li   -0.00030    0.00018   -0.05378
 27 Li   -0.00027   -0.00047   -0.05283
 28 Li    0.00366   -0.00563    0.00079
 29 Li   -0.00136    0.00713   -0.00918
 30 Li   -0.00437   -0.00487    0.01447
 31 Li    0.00079    0.00303    0.01250
 32 Li   -0.00718    0.00077    0.00149
 33 Li   -0.00263   -0.00586    0.01381
 34 Li    0.00636    0.00294   -0.00981
 35 Li    0.00197    0.00249    0.01207
 36 Li    0.00430    0.00715   -0.00070
 37 Li    0.00395   -0.00354    0.00151
 38 Li   -0.00541    0.00166    0.00144
 39 Li   -0.00458   -0.00797    0.00230
 40 Li    0.00278   -0.00095    0.00522
 41 Li    0.00008    0.00271    0.00325
 42 Li   -0.00361   -0.00211   -0.00174
 43 Li   -0.00201   -0.00179   -0.00219
 44 Li   -0.00241    0.00210    0.00286
 45 Li   -0.00004   -0.00424   -0.00339
 46 Li    0.00230    0.00150    0.00115
 47 Li   -0.00074   -0.00253   -0.00422
 48 N    -0.00040   -0.00015    0.08843
 49 N    -0.00041    0.00030    0.10204
 50 N     0.00004    0.00006    0.10208
 51 N     0.00005    0.00056    0.10366
 52 N     0.00454    0.00751   -0.03922
 53 N     0.00523   -0.00253    0.10944
 54 N    -0.00567    0.00318    0.10986
 55 N    -0.00557   -0.00952    0.12750
 56 N     0.00037    0.00070   -0.00564
 57 N    -0.00148   -0.00030    0.00155
 58 N     0.00044   -0.00124    0.00142
 59 N     0.00041    0.00084   -0.00062
 60 N    -0.00895   -0.01484   -0.01867
 61 N    -0.00531    0.00291    0.00368
 62 N     0.00566   -0.00360    0.00369
 63 N     0.00563    0.00944   -0.00142
 64 Li    0.02697    0.04416    0.00141

Date: Tue Sep  7 17:07:25 2021