User:   jngwng01@n944025
Date:   Tue Sep  7 09:23:09 2021
Arch:   x86_64
Pid:    25669
Python: 3.8.5
gpaw:   /uls/7/gpaw-20.1.0/lib/python3.8/site-packages/gpaw-20.1.0-py3.8-linux-x86_64.egg/gpaw
_gpaw:  /uls/7/gpaw-20.1.0/lib/python3.8/site-packages/gpaw-20.1.0-py3.8-linux-x86_64.egg/
        _gpaw.cpython-38-x86_64-linux-gnu.so
ase:    /uls/7/gpaw-20.1.0/lib/python3.8/site-packages/ase-3.20.1-py3.8.egg/ase (version 3.20.1)
numpy:  /uls/7/gpaw-20.1.0/lib/python3.8/site-packages/numpy (version 1.19.2)
scipy:  /uls/7/gpaw-20.1.0/lib/python3.8/site-packages/scipy-1.5.2-py3.8-linux-x86_64.egg/scipy (version 1.5.2)
units:  Angstrom and eV
cores: 16
OMP_NUM_THREADS: 1

Input parameters:
  convergence: {density: 0.0001,
                eigenstates: 1e-07}
  kpts: [5 5 1]
  mode: {ecut: 500.0,
         gammacentered: False,
         name: pw}
  occupations: {name: fermi-dirac,
                width: 0.05}
  xc: PBE

System changes: positions, numbers, cell, pbc, initial_charges, initial_magmoms

Initialize ...

Li-setup:
  name: Lithium
  id: 830b4218f175192f93f959cfc0aad614
  Z: 3
  valence: 1
  core: 2
  charge: 0.0
  file: /uls/7/gpaw-20.1.0/setups/gpaw-setups-0.9.20000/Li.PBE.gz
  compensation charges: gauss, rc=0.33, lmax=2
  cutoffs: 1.91(filt), 2.55(core),
  valence states:
                energy  radius
    2s(1.00)    -2.874   1.058
    2p(0.00)    -1.090   1.058
    *s          24.337   1.058

  Using partial waves for Li as LCAO basis

N-setup:
  name: Nitrogen
  id: f7500608b86eaa90eef8b1d9a670dc53
  Z: 7
  valence: 5
  core: 2
  charge: 0.0
  file: /uls/7/gpaw-20.1.0/setups/gpaw-setups-0.9.20000/N.PBE.gz
  compensation charges: gauss, rc=0.18, lmax=2
  cutoffs: 1.11(filt), 0.96(core),
  valence states:
                energy  radius
    2s(2.00)   -18.583   0.603
    2p(3.00)    -7.089   0.529
    *s           8.629   0.603
    *p          20.123   0.529
    *d           0.000   0.577

  Using partial waves for N as LCAO basis

Reference energy: -33644.147259

Spin-paired calculation

Occupation numbers:
  Fermi-Dirac: width=0.0500 eV

Convergence criteria:
  Maximum total energy change: 0.0005 eV / electron
  Maximum integral of absolute density change: 0.0001 electrons
  Maximum integral of absolute eigenstate change: 1e-07 eV^2
  Maximum number of iterations: 333

Symmetries present (total): 1

  ( 1  0  0)
  ( 0  1  0)
  ( 0  0  1)

25 k-points: 5 x 5 x 1 Monkhorst-Pack grid
13 k-points in the irreducible part of the Brillouin zone
       k-points in crystal coordinates                weights
   0:     0.00000000    0.00000000    0.00000000          1/25
   1:     0.00000000    0.20000000    0.00000000          2/25
   2:     0.00000000    0.40000000    0.00000000          2/25
   3:     0.20000000   -0.40000000    0.00000000          2/25
   4:     0.20000000   -0.20000000    0.00000000          2/25
   5:     0.20000000    0.00000000    0.00000000          2/25
   6:     0.20000000    0.20000000    0.00000000          2/25
   7:     0.20000000    0.40000000    0.00000000          2/25
   8:     0.40000000   -0.40000000    0.00000000          2/25
   9:     0.40000000   -0.20000000    0.00000000          2/25
          ...
  12:     0.40000000    0.40000000    0.00000000          2/25

Wave functions: Plane wave expansion
  Cutoff energy: 500.000 eV
  Number of coefficients (min, max): 32263, 32394
  Pulay-stress correction: 0.000000 eV/Ang^3 (de/decut=0.000000)
  Using FFTW library
  ScaLapack parameters: grid=1x1, blocksize=None
  Wavefunction extrapolation:
    Improved wavefunction reuse through dual PAW basis

Eigensolver
   Davidson(niter=2, smin=None, normalize=True)

Densities:
  Coarse grid: 40*40*160 grid
  Fine grid: 80*80*320 grid
  Total Charge: 0.000000

Density mixing:
  Method: separate
  Backend: pulay
  Linear mixing parameter: 0.05
  Mixing with 5 old densities
  Damping of long wave oscillations: 50

Hamiltonian:
  XC and Coulomb potentials evaluated on a 80*80*320 grid
  Using the PBE Exchange-Correlation functional

XC parameters: PBE with 2 nearest neighbor stencil

Total number of cores used: 16
Parallelization over k-points: 8
Domain decomposition: 1 x 1 x 2
                      2 x 2 x 4 (xc only)

Number of atoms: 65
Number of atomic orbitals: 260
Number of bands in calculation: 82
Number of valence electrons: 129
Bands to converge: occupied

... initialized

Initializing position-dependent things.

Density initialized from atomic densities
Creating initial wave functions:
  82 bands from LCAO basis set

           Li      Li
              N        N  Li
             Li   Li Li
              LiN   Li LiN
                            Li
           Li   Li Li    Li
              N   Li   N  Li
             Li      Li
              LiN   Li LiN  Li

           Li N Li Li  N Li
                  Li      Li
             Li N    Li  N
              Li    Li Li   Li

[...]

                Li       Li

Positions:
   0 Li     1.753189    1.012426    1.530029    ( 0.0000,  0.0000,  0.0000)
   1 Li    -0.000191    4.049369    1.530029    ( 0.0000,  0.0000,  0.0000)
   2 Li     5.259899    1.012426    1.530029    ( 0.0000,  0.0000,  0.0000)
   3 Li     3.506519    4.049369    1.530029    ( 0.0000,  0.0000,  0.0000)
   4 Li     1.751013    1.016053   13.224221    ( 0.0000,  0.0000,  0.0000)
   5 Li     0.004269    4.051473   13.303235    ( 0.0000,  0.0000,  0.0000)
   6 Li     5.260384    1.009069   13.303090    ( 0.0000,  0.0000,  0.0000)
   7 Li     3.500418    4.050555   13.245625    ( 0.0000,  0.0000,  0.0000)
   8 Li     3.547574   -0.050620   15.536174    ( 0.0000,  0.0000,  0.0000)
   9 Li     1.701049    3.089927   15.057892    ( 0.0000,  0.0000,  0.0000)
  10 Li     6.971183    0.010651   15.117902    ( 0.0000,  0.0000,  0.0000)
  11 Li     5.313615    3.034064   15.667184    ( 0.0000,  0.0000,  0.0000)
  12 Li    -0.068924    2.038470   15.537348    ( 0.0000,  0.0000,  0.0000)
  13 Li    -1.724346    5.032697   15.109885    ( 0.0000,  0.0000,  0.0000)
  14 Li     3.575983    2.006422   15.046611    ( 0.0000,  0.0000,  0.0000)
  15 Li     1.723612    5.105410   15.682694    ( 0.0000,  0.0000,  0.0000)
  16 Li     3.506465    0.000182    3.465092    ( 0.0000,  0.0000,  0.0000)
  17 Li     1.753085    3.037125    3.465092    ( 0.0000,  0.0000,  0.0000)
  18 Li     7.013175    0.000182    3.465092    ( 0.0000,  0.0000,  0.0000)
  19 Li     5.259795    3.037125    3.465092    ( 0.0000,  0.0000,  0.0000)
  20 Li    -0.000262    2.024791    3.465092    ( 0.0000,  0.0000,  0.0000)
  21 Li    -1.753642    5.061734    3.465092    ( 0.0000,  0.0000,  0.0000)
  22 Li     3.506448    2.024791    3.465092    ( 0.0000,  0.0000,  0.0000)
  23 Li     1.753068    5.061734    3.465092    ( 0.0000,  0.0000,  0.0000)
  24 Li     1.753084    1.012487    5.431887    ( 0.0000,  0.0000,  0.0000)
  25 Li    -0.000296    4.049430    5.431887    ( 0.0000,  0.0000,  0.0000)
  26 Li     5.259794    1.012487    5.431887    ( 0.0000,  0.0000,  0.0000)
  27 Li     3.506414    4.049430    5.431887    ( 0.0000,  0.0000,  0.0000)
  28 Li     3.506429    0.000182    7.378027    ( 0.0000,  0.0000,  0.0000)
  29 Li     1.753049    3.037125    7.378027    ( 0.0000,  0.0000,  0.0000)
  30 Li     7.013139    0.000182    7.378027    ( 0.0000,  0.0000,  0.0000)
  31 Li     5.259759    3.037125    7.378027    ( 0.0000,  0.0000,  0.0000)
  32 Li    -0.000297    2.024791    7.378027    ( 0.0000,  0.0000,  0.0000)
  33 Li    -1.753677    5.061734    7.378027    ( 0.0000,  0.0000,  0.0000)
  34 Li     3.506413    2.024791    7.378027    ( 0.0000,  0.0000,  0.0000)
  35 Li     1.753033    5.061734    7.378027    ( 0.0000,  0.0000,  0.0000)
  36 Li     1.752930    1.013639    9.330391    ( 0.0000,  0.0000,  0.0000)
  37 Li     0.000650    4.049628    9.353077    ( 0.0000,  0.0000,  0.0000)
  38 Li     5.259488    1.011906    9.353075    ( 0.0000,  0.0000,  0.0000)
  39 Li     3.504529    4.049706    9.337419    ( 0.0000,  0.0000,  0.0000)
  40 Li     3.507112   -0.000850   11.325094    ( 0.0000,  0.0000,  0.0000)
  41 Li     1.750642    3.039037   11.265715    ( 0.0000,  0.0000,  0.0000)
  42 Li     7.011071    0.001400   11.267485    ( 0.0000,  0.0000,  0.0000)
  43 Li     5.261158    3.037526   11.342767    ( 0.0000,  0.0000,  0.0000)
  44 Li    -0.003867    2.026230   11.325050    ( 0.0000,  0.0000,  0.0000)
  45 Li    -1.753103    5.061127   11.267972    ( 0.0000,  0.0000,  0.0000)
  46 Li     3.508015    2.024713   11.266189    ( 0.0000,  0.0000,  0.0000)
  47 Li     1.750865    5.064213   11.341920    ( 0.0000,  0.0000,  0.0000)
  48 N      1.753084    1.012487    3.439048    ( 0.0000,  0.0000,  0.0000)
  49 N     -0.000296    4.049430    3.439048    ( 0.0000,  0.0000,  0.0000)
  50 N      5.259794    1.012487    3.439048    ( 0.0000,  0.0000,  0.0000)
  51 N      3.506414    4.049430    3.439048    ( 0.0000,  0.0000,  0.0000)
  52 N      1.753031    1.012517    7.360963    ( 0.0000,  0.0000,  0.0000)
  53 N     -0.000349    4.049460    7.360963    ( 0.0000,  0.0000,  0.0000)
  54 N      5.259741    1.012517    7.360963    ( 0.0000,  0.0000,  0.0000)
  55 N      3.506361    4.049460    7.360963    ( 0.0000,  0.0000,  0.0000)
  56 N      1.752155    1.013121   11.258426    ( 0.0000,  0.0000,  0.0000)
  57 N     -0.001084    4.050291   11.307601    ( 0.0000,  0.0000,  0.0000)
  58 N      5.259281    1.012902   11.307576    ( 0.0000,  0.0000,  0.0000)
  59 N      3.505451    4.050320   11.272082    ( 0.0000,  0.0000,  0.0000)
  60 N      1.742726    0.999745   15.144615    ( 0.0000,  0.0000,  0.0000)
  61 N     -0.013130    4.059029   15.285384    ( 0.0000,  0.0000,  0.0000)
  62 N      5.270047    1.008815   15.285045    ( 0.0000,  0.0000,  0.0000)
  63 N      3.511285    4.059651   15.188021    ( 0.0000,  0.0000,  0.0000)
  64 Li     2.514559    2.286417   17.155637    ( 0.0000,  0.0000,  0.0000)

Unit cell:
           periodic     x           y           z      points  spacing
  1. axis:    yes    7.013420    0.000000    0.000000    40     0.1518
  2. axis:    yes   -3.506760    6.073886    0.000000    40     0.1518
  3. axis:    yes    0.000000    0.000000   29.936001   160     0.1871

  Lengths:   7.013420   7.013520  29.936001
  Angles:   90.000000  90.000000 120.000000

Effective grid spacing dv^(1/3) = 0.1708

                     log10-error:    total        iterations:
           time      wfs    density  energy       fermi  poisson
iter:   1  09:24:43                -274.701220    4
iter:   2  09:25:23  -0.99  -0.51  -262.255170    5
iter:   3  09:26:03  -0.41  -0.57  -278.473275    37
iter:   4  09:26:42  -1.86  -0.52  -251.048002    35
iter:   5  09:27:22  -2.71  -0.72  -248.368148    4
iter:   6  09:28:02  -1.38  -0.73  -245.819156    4
iter:   7  09:28:42  -1.43  -0.79  -240.061977    31
iter:   8  09:29:22  -1.62  -0.89  -237.874800    32
iter:   9  09:30:02  -2.11  -0.96  -238.534524    4
iter:  10  09:30:41  -1.93  -0.91  -237.532098    4
iter:  11  09:31:21  -1.45  -0.92  -247.471503    35
iter:  12  09:32:02  -1.87  -0.83  -235.869426    35
iter:  13  09:32:42  -2.74  -1.01  -238.704945    33
iter:  14  09:33:22  -2.21  -0.90  -235.568705    36
[...]
              N        N  Li
             Li   Li Li
              Li N  Li LiN
                            Li
           Li   Li Li    Li
              N   Li   N  Li
             Li      Li
              LiN   Li LiN  Li

           Li N Li Li  N Li
                  Li      Li
             Li N    Li  N
              Li    Li Li   Li
           Li      Li
              N Li     N Li
                  Li      Li
             Li N    Li  N
              Li    Li Li   Li

[...]

                   Li
           Li      Li
              N        N  Li
             Li   Li Li
              Li N  Li LiN  Li

           Li   Li Li    Li
              N   Li   N  Li
             Li      Li
              LiN   Li LiN  Li

[...]

                   Li
           Li N    Li
             Li       N   Li
                 NLi Li  N
              Li    Li Li   Li

[...]

                   Li
           Li N    Li
             Li        N  Li
                 NLi Li  N
              Li    Li Li   Li

[...]

                   Li
           Li N    Li  N  Li
             Li
                 NLi Li  N
              Li    Li Li   Li

[...]

           Li N Li Li  N Li
                  Li      Li
             Li N    Li  N
              Li    Li Li   Li
           Li      Li
              N Li     N Li
             Li   Li Li   Li
                N        N
              Li    Li Li   Li

[...]

                   Li
           Li N    Li  N  Li
             Li
                 NLi  Li N
              Li    Li Li   Li

[...]

           Li N Li Li  N Li
                  Li      Li
             Li N    Li  N
              Li    Li Li   Li
           Li      Li
              N Li     N Li
             Li   Li Li   Li
              LiN      LiN
                    Li      Li

[...]

           Li      Li
              N    Li  N  Li
             Li   Li
              Li N  LiLiiN
                            Li
           Li   Li Li    Li
              N        N  Li
             Li   Li Li
              LiN   Li LiN
                            Li
           Li   Li Li    Li
              N   Li   N  Li
             Li      Li
              LiN   Li LiN  Li

[...]

           Li      Li
              N    Li N   Li
             Li   Li
              Li N  LiLiiN
                            Li
           Li   Li Li    Li
              N   Li   N  Li
             Li      Li
              LiN   Li LiN
                            Li
           Li   Li Li    Li
              N   Li   N  Li
             Li      Li
              LiN   Li LiN  Li

[...]

           Li      Li
              N    Li N   Li
             Li   Li
              Li N  LiLiiN
                            Li
           Li   Li Li    Li
              N   Li   N  Li
             Li      Li
              LiN   Li LiN
                            Li
           Li   Li Li    Li
              N   Li   N  Li
             Li      Li
              LiN   Li LiN  Li

[...]

           Li      Li
              N    Li N   Li
             Li   Li
              Li N  LiLiiN
                            Li
           Li   Li Li    Li
              N   Li   N  Li
             Li      Li
              LiN   Li LiN  Li

[...]

           Li      Li
              N    Li N   Li
             Li   Li
              Li N  LiLiiN
                            Li
           Li   Li Li    Li
              N   Li   N  Li
             Li      Li
              LiN   Li LiN  Li

[...]

           Li      Li
              N    Li N   Li
             Li   Li
              LiN   LiLiiN
                            Li
           Li   Li Li    Li
              N   Li   N  Li
             Li      Li
              LiN   Li LiN  Li

[...]

           Li      Li
              N    Li N   Li
             Li   Li
              LiN   LiLiiN
                            Li
           Li   Li Li    Li
              N   Li   N  Li
             Li      Li
              LiN   Li LiN  Li

[...]

           Li      Li
              N    Li N   Li
             Li   Li
              Li N  LiLiiN
                            Li
           Li      Li    Li
              N LiLi   N  Li
             Li      Li
              LiN   Li LiN  Li

[...]

           Li      Li
              N    Li N   Li
             Li   Li
              Li N  LiLiiN
                            Li
           Li      Li    Li
              N LiLi   N  Li
             Li      Li
              LiN   Li LiN  Li

           Li   Li Li    Li
              N   Li   N  Li
             Li      Li
              LiN   Li LiN  Li

[...]

           Li      Li
              N    Li N   Li
             Li   Li
              Li N  LiLiiN
                            Li
           Li      Li    Li
              N LiLi   N  Li
             Li      Li
              LiN   Li LiN
                            Li
           Li   Li Li    Li
              N   Li   N  Li
             Li      Li
              LiN   Li LiN  Li

[...]

           Li      Li
              N       N   Li
             Li   Li
              Li N  LiLiiN
                            Li
           Li      Li    Li
              N LiLi   N  Li
             Li      Li
              LiN   Li LiN
                            Li
           Li N Li Li  N Li
                  Li      Li
             Li      Li
              LiN   Li LiN  Li

[...]

           Li      Li
              N       N   Li
             Li   Li
              Li N  LiLiiN
                            Li
           Li   Li Li    Li
              N   Li   N  Li
             Li      Li
              LiN   Li LiN
                            Li
           Li N Li Li  N Li
                  Li      Li
             Li      Li
              LiN   Li LiN  Li

[...]

           Li      Li
              N       N   Li
             Li   Li
              Li N  LiLiiN  Li

           Li   Li Li    Li
              N   Li   N  Li
             Li      Li
              LiN   Li LiN
                            Li
           Li N Li Li  N Li
                  Li      Li
             Li N    Li  N
              Li    Li Li   Li

[...]

           Li      Li
              N       N   Li
             Li   Li
              Li N  LiLiiN  Li

[...]

           Li      Li
              N    Li N   Li
             Li   Li
              Li N  LiLiiN  Li

[...]

           Li   Li Li    Li
              N   Li   N  Li
             Li      Li
              LiN   Li LiN
                            Li
           Li N Li Li  N Li
                  Li      Li
             Li N    Li  N
              Li    Li Li   Li

[...]

           Li      Li    Li
              N LiLi   N  Li
             Li      Li
              LiN   Li LiN
                            Li
           Li N Li Li  N Li
                  Li      Li
             Li N    Li  N
              Li    Li Li   Li

[...]

System changes: positions

Initializing position-dependent things.

Density initialized from wave functions

           Li      Li
              N    Li N   Li
             Li   Li
              Li N  LiLiiN  Li

           Li      Li    Li
              N LiLi   N  Li
             Li      Li
              LiN   Li LiN
                            Li
           Li N Li Li  N Li
                  Li      Li
             Li N    Li  N
              Li    Li Li   Li

           Li N Li Li  N Li
                  Li      Li
             Li N    Li  N
              Li    Li Li   Li

                Li       Li

Positions:
   0 Li     1.753189    1.012426    1.530029    ( 0.0000,  0.0000,  0.0000)
   1 Li    -0.000191    4.049369    1.530029    ( 0.0000,  0.0000,  0.0000)
   2 Li     5.259899    1.012426    1.530029    ( 0.0000,  0.0000,  0.0000)
   3 Li     3.506519    4.049369    1.530029    ( 0.0000,  0.0000,  0.0000)
   4 Li     1.654962    0.850402   13.202783    ( 0.0000,  0.0000,  0.0000)
   5 Li    -0.227826    4.144062   13.326195    ( 0.0000,  0.0000,  0.0000)
   6 Li     5.457269    0.868146   13.317898    ( 0.0000,  0.0000,  0.0000)
   7 Li     3.634702    4.273422   13.284963    ( 0.0000,  0.0000,  0.0000)
   8 Li     3.543924    0.075288   15.405688    ( 0.0000,  0.0000,  0.0000)
   9 Li     1.675919    3.185819   14.537954    ( 0.0000,  0.0000,  0.0000)
  10 Li     6.985332    0.001717   15.349331    ( 0.0000,  0.0000,  0.0000)
  11 Li     5.169698    2.962757   15.828107    ( 0.0000,  0.0000,  0.0000)
  12 Li     0.052729    2.092387   15.429295    ( 0.0000,  0.0000,  0.0000)
  13 Li    -1.738890    5.045070   15.377392    ( 0.0000,  0.0000,  0.0000)
  14 Li     3.669240    2.032935   14.527564    ( 0.0000,  0.0000,  0.0000)
  15 Li     1.734676    4.944838   15.848480    ( 0.0000,  0.0000,  0.0000)
  16 Li     3.506465    0.000182    3.465092    ( 0.0000,  0.0000,  0.0000)
  17 Li     1.753085    3.037125    3.465092    ( 0.0000,  0.0000,  0.0000)
  18 Li     7.013175    0.000182    3.465092    ( 0.0000,  0.0000,  0.0000)
  19 Li     5.259795    3.037125    3.465092    ( 0.0000,  0.0000,  0.0000)
  20 Li    -0.000262    2.024791    3.465092    ( 0.0000,  0.0000,  0.0000)
  21 Li    -1.753642    5.061734    3.465092    ( 0.0000,  0.0000,  0.0000)
  22 Li     3.506448    2.024791    3.465092    ( 0.0000,  0.0000,  0.0000)
  23 Li     1.753068    5.061734    3.465092    ( 0.0000,  0.0000,  0.0000)
  24 Li     1.753084    1.012487    5.431887    ( 0.0000,  0.0000,  0.0000)
  25 Li    -0.000296    4.049430    5.431887    ( 0.0000,  0.0000,  0.0000)
  26 Li     5.259794    1.012487    5.431887    ( 0.0000,  0.0000,  0.0000)
  27 Li     3.506414    4.049430    5.431887    ( 0.0000,  0.0000,  0.0000)
  28 Li     3.506429    0.000182    7.378027    ( 0.0000,  0.0000,  0.0000)
  29 Li     1.753049    3.037125    7.378027    ( 0.0000,  0.0000,  0.0000)
  30 Li     7.013139    0.000182    7.378027    ( 0.0000,  0.0000,  0.0000)
  31 Li     5.259759    3.037125    7.378027    ( 0.0000,  0.0000,  0.0000)
  32 Li    -0.000297    2.024791    7.378027    ( 0.0000,  0.0000,  0.0000)
  33 Li    -1.753677    5.061734    7.378027    ( 0.0000,  0.0000,  0.0000)
  34 Li     3.506413    2.024791    7.378027    ( 0.0000,  0.0000,  0.0000)
  35 Li     1.753033    5.061734    7.378027    ( 0.0000,  0.0000,  0.0000)
  36 Li     1.768409    1.040968    9.319756    ( 0.0000,  0.0000,  0.0000)
  37 Li     0.020496    4.035121    9.368030    ( 0.0000,  0.0000,  0.0000)
  38 Li     5.236465    1.021594    9.365934    ( 0.0000,  0.0000,  0.0000)
  39 Li     3.484714    4.015323    9.343676    ( 0.0000,  0.0000,  0.0000)
  40 Li     3.505455   -0.001976   11.380420    ( 0.0000,  0.0000,  0.0000)
  41 Li     1.747855    3.032285   11.345651    ( 0.0000,  0.0000,  0.0000)
  42 Li     7.002008   -0.002599   11.155521    ( 0.0000,  0.0000,  0.0000)
  43 Li     5.250826    3.024281   11.421350    ( 0.0000,  0.0000,  0.0000)
  44 Li    -0.005078    2.025553   11.355185    ( 0.0000,  0.0000,  0.0000)
  45 Li    -1.750559    5.050513   11.143555    ( 0.0000,  0.0000,  0.0000)
  46 Li     3.503747    2.018733   11.315765    ( 0.0000,  0.0000,  0.0000)
  47 Li     1.743092    5.049365   11.401740    ( 0.0000,  0.0000,  0.0000)
  48 N      1.753084    1.012487    3.439048    ( 0.0000,  0.0000,  0.0000)
  49 N     -0.000296    4.049430    3.439048    ( 0.0000,  0.0000,  0.0000)
  50 N      5.259794    1.012487    3.439048    ( 0.0000,  0.0000,  0.0000)
  51 N      3.506414    4.049430    3.439048    ( 0.0000,  0.0000,  0.0000)
  52 N      1.753031    1.012517    7.360963    ( 0.0000,  0.0000,  0.0000)
  53 N     -0.000349    4.049460    7.360963    ( 0.0000,  0.0000,  0.0000)
  54 N      5.259741    1.012517    7.360963    ( 0.0000,  0.0000,  0.0000)
  55 N      3.506361    4.049460    7.360963    ( 0.0000,  0.0000,  0.0000)
  56 N      1.744410    1.000342   11.241587    ( 0.0000,  0.0000,  0.0000)
  57 N     -0.015654    4.047161   11.335926    ( 0.0000,  0.0000,  0.0000)
  58 N      5.263412    0.999503   11.331370    ( 0.0000,  0.0000,  0.0000)
  59 N      3.507399    4.053551   11.299822    ( 0.0000,  0.0000,  0.0000)
  60 N      1.808480    1.106866   15.096103    ( 0.0000,  0.0000,  0.0000)
  61 N     -0.010973    4.070729   15.255342    ( 0.0000,  0.0000,  0.0000)
  62 N      5.283463    1.015589   15.244467    ( 0.0000,  0.0000,  0.0000)
  63 N      3.454723    3.960073   15.231600    ( 0.0000,  0.0000,  0.0000)
  64 Li     2.571423    2.407686   16.462406    ( 0.0000,  0.0000,  0.0000)

Unit cell:
           periodic     x           y           z      points  spacing
  1. axis:    yes    7.013420    0.000000    0.000000    40     0.1518
  2. axis:    yes   -3.506760    6.073886    0.000000    40     0.1518
  3. axis:    yes    0.000000    0.000000   29.936001   160     0.1871

  Lengths:   7.013420   7.013520  29.936001
  Angles:   90.000000  90.000000 120.000000

Effective grid spacing dv^(1/3) = 0.1708

                     log10-error:    total        iterations:
           time      wfs    density  energy       fermi  poisson
iter:   1  17:01:31  -4.44         -235.059785    2
iter:   2  17:02:13  -5.21  -2.89  -235.056645    3
iter:   3  17:02:52  -5.79  -2.56  -235.056120    3
iter:   4  17:03:33  -5.79  -3.43  -235.055316    2
iter:   5  17:04:13  -6.64  -3.38  -235.055963    2
iter:   6  17:04:53  -6.43  -3.81  -235.056164    2
iter:   7  17:05:33  -6.67  -3.88  -235.055945    2
iter:   8  17:06:13  -7.48  -4.06  -235.055909    2

Converged after 8 iterations.

Dipole moment: (0.050123, 0.486376, -11.474369) |e|*Ang

Energy contributions relative to reference atoms: (reference = -33644.147259)

Kinetic:       +254.038108
Potential:     -187.600859
External:        +0.000000
XC:            -300.166379
Entropy (-ST):   -0.074546
Local:           -1.289506
Free energy:   -235.093182
Extrapolated:  -235.055909

Fermi level: -0.32793

Showing only first 2 kpts
 Kpt  Band  Eigenvalues  Occupancy
  0    62     -0.64972    0.07987
  0    63     -0.14162    0.00188
  0    64     -0.06301    0.00040
  0    65      0.03192    0.00006

  1    62     -0.69864    0.15990
  1    63     -0.36295    0.10692
  1    64     -0.22115    0.01691
  1    65      0.24557    0.00000

Forces in eV/Ang:
  0 Li   -0.00006    0.00007   -0.06007
  1 Li   -0.00006    0.00005   -0.06019
  2 Li   -0.00008    0.00006   -0.06017
  3 Li   -0.00009    0.00002   -0.06024
  4 Li    0.00162    0.00417    0.01199
  5 Li   -0.00667   -0.00197   -0.01234
  6 Li    0.00194   -0.00283   -0.01618
  7 Li   -0.00086   -0.00051    0.00270
  8 Li   -0.00312   -0.01250   -0.03307
  9 Li    0.01839    0.00860   -0.00649
 10 Li   -0.01950    0.01034   -0.02842
 11 Li    0.02593   -0.00566    0.01373
 12 Li   -0.00747   -0.01108   -0.02588
 13 Li    0.01820   -0.00777   -0.01423
 14 Li   -0.00299    0.02101   -0.01028
 15 Li   -0.01869    0.01899    0.02144
 16 Li    0.00022   -0.00014   -0.04851
 17 Li   -0.00033   -0.00015   -0.04839
 18 Li   -0.00019    0.00022   -0.04973
 19 Li    0.00032   -0.00041   -0.04871
 20 Li   -0.00020    0.00024   -0.04853
 21 Li    0.00032    0.00007   -0.04974
 22 Li    0.00007   -0.00024   -0.04842
 23 Li   -0.00049    0.00020   -0.04866
 24 Li    0.00081    0.00143   -0.07489
 25 Li    0.00087   -0.00038   -0.06516
 26 Li   -0.00075    0.00045   -0.06554
 27 Li   -0.00080   -0.00124   -0.07153
 28 Li    0.00231   -0.01428    0.00618
 29 Li   -0.01250    0.00678   -0.04452
 30 Li   -0.00460    0.00081    0.03057
 31 Li    0.01223    0.00421    0.01107
 32 Li   -0.01434   -0.00400    0.00538
 33 Li    0.00282   -0.00370    0.03072
 34 Li    0.01183   -0.00671   -0.04500
 35 Li   -0.00319    0.01278    0.00693
 36 Li    0.01164    0.01930    0.00206
 37 Li    0.01035   -0.00771    0.00158
 38 Li   -0.01237    0.00501   -0.00009
 39 Li   -0.01309   -0.02306    0.01156
 40 Li   -0.00461    0.00350   -0.00581
 41 Li   -0.00059   -0.00565    0.00475
 42 Li    0.00387    0.00195    0.00567
 43 Li   -0.00006   -0.00039    0.00410
 44 Li    0.00507   -0.00174   -0.01720
 45 Li    0.00067    0.00358    0.00103
 46 Li   -0.00417   -0.00345   -0.01041
 47 Li   -0.00053   -0.00018   -0.00575
 48 N    -0.00062   -0.00058    0.11329
 49 N    -0.00087    0.00044    0.11697
 50 N     0.00041   -0.00019    0.11545
 51 N     0.00040    0.00112    0.11601
 52 N     0.01397    0.02465   -0.00268
 53 N     0.01855   -0.01035    0.15437
 54 N    -0.01835    0.00924    0.14680
 55 N    -0.01648   -0.02660    0.10098
 56 N    -0.00262   -0.00452   -0.00098
 57 N    -0.00158    0.00075   -0.00985
 58 N     0.00184   -0.00050   -0.01345
 59 N     0.00195    0.00301   -0.00081
 60 N    -0.00184   -0.00411    0.00478
 61 N    -0.00973    0.01520    0.02074
 62 N     0.01766   -0.00123    0.01744
 63 N     0.00075   -0.00006    0.03691
 64 Li   -0.00183   -0.00814   -0.01164

Date: Tue Sep  7 17:07:25 2021