User:   jngwng01@n944026
Date:   Tue Sep  7 09:23:09 2021
Arch:   x86_64
Pid:    2090
Python: 3.8.5
gpaw:   /uls/7/gpaw-20.1.0/lib/python3.8/site-packages/gpaw-20.1.0-py3.8-linux-x86_64.egg/gpaw
_gpaw:  /uls/7/gpaw-20.1.0/lib/python3.8/site-packages/gpaw-20.1.0-py3.8-linux-x86_64.egg/
        _gpaw.cpython-38-x86_64-linux-gnu.so
ase:    /uls/7/gpaw-20.1.0/lib/python3.8/site-packages/ase-3.20.1-py3.8.egg/ase (version 3.20.1)
numpy:  /uls/7/gpaw-20.1.0/lib/python3.8/site-packages/numpy (version 1.19.2)
scipy:  /uls/7/gpaw-20.1.0/lib/python3.8/site-packages/scipy-1.5.2-py3.8-linux-x86_64.egg/scipy (version 1.5.2)
units:  Angstrom and eV
cores: 16
OMP_NUM_THREADS: 1

Input parameters:
  convergence: {density: 0.0001,
                eigenstates: 1e-07}
  kpts: [5 5 1]
  mode: {ecut: 500.0,
         gammacentered: False,
         name: pw}
  occupations: {name: fermi-dirac,
                width: 0.05}
  xc: PBE

System changes: positions, numbers, cell, pbc, initial_charges, initial_magmoms

Initialize ...

Li-setup:
  name: Lithium
  id: 830b4218f175192f93f959cfc0aad614
  Z: 3
  valence: 1
  core: 2
  charge: 0.0
  file: /uls/7/gpaw-20.1.0/setups/gpaw-setups-0.9.20000/Li.PBE.gz
  compensation charges: gauss, rc=0.33, lmax=2
  cutoffs: 1.91(filt), 2.55(core),
  valence states:
                energy  radius
    2s(1.00)    -2.874   1.058
    2p(0.00)    -1.090   1.058
    *s          24.337   1.058

  Using partial waves for Li as LCAO basis

N-setup:
  name: Nitrogen
  id: f7500608b86eaa90eef8b1d9a670dc53
  Z: 7
  valence: 5
  core: 2
  charge: 0.0
  file: /uls/7/gpaw-20.1.0/setups/gpaw-setups-0.9.20000/N.PBE.gz
  compensation charges: gauss, rc=0.18, lmax=2
  cutoffs: 1.11(filt), 0.96(core),
  valence states:
                energy  radius
    2s(2.00)   -18.583   0.603
    2p(3.00)    -7.089   0.529
    *s           8.629   0.603
    *p          20.123   0.529
    *d           0.000   0.577

  Using partial waves for N as LCAO basis

Reference energy: -33644.147259

Spin-paired calculation

Occupation numbers:
  Fermi-Dirac: width=0.0500 eV

Convergence criteria:
  Maximum total energy change: 0.0005 eV / electron
  Maximum integral of absolute density change: 0.0001 electrons
  Maximum integral of absolute eigenstate change: 1e-07 eV^2
  Maximum number of iterations: 333

Symmetries present (total): 1

  ( 1  0  0)
  ( 0  1  0)
  ( 0  0  1)

25 k-points: 5 x 5 x 1 Monkhorst-Pack grid
13 k-points in the irreducible part of the Brillouin zone
       k-points in crystal coordinates                weights
   0:     0.00000000    0.00000000    0.00000000          1/25
   1:     0.00000000    0.20000000    0.00000000          2/25
   2:     0.00000000    0.40000000    0.00000000          2/25
   3:     0.20000000   -0.40000000    0.00000000          2/25
   4:     0.20000000   -0.20000000    0.00000000          2/25
   5:     0.20000000    0.00000000    0.00000000          2/25
   6:     0.20000000    0.20000000    0.00000000          2/25
   7:     0.20000000    0.40000000    0.00000000          2/25
   8:     0.40000000   -0.40000000    0.00000000          2/25
   9:     0.40000000   -0.20000000    0.00000000          2/25
          ...
  12:     0.40000000    0.40000000    0.00000000          2/25

Wave functions: Plane wave expansion
  Cutoff energy: 500.000 eV
  Number of coefficients (min, max): 32263, 32394
  Pulay-stress correction: 0.000000 eV/Ang^3 (de/decut=0.000000)
  Using FFTW library
  ScaLapack parameters: grid=1x1, blocksize=None
  Wavefunction extrapolation:
    Improved wavefunction reuse through dual PAW basis

Eigensolver
   Davidson(niter=2, smin=None, normalize=True)

Densities:
  Coarse grid: 40*40*160 grid
  Fine grid: 80*80*320 grid
  Total Charge: 0.000000

Density mixing:
  Method: separate
  Backend: pulay
  Linear mixing parameter: 0.05
  Mixing with 5 old densities
  Damping of long wave oscillations: 50

Hamiltonian:
  XC and Coulomb potentials evaluated on a 80*80*320 grid
  Using the PBE Exchange-Correlation functional

XC parameters: PBE with 2 nearest neighbor stencil

Total number of cores used: 16
Parallelization over k-points: 8
Domain decomposition: 1 x 1 x 2
                      2 x 2 x 4 (xc only)

Number of atoms: 65
Number of atomic orbitals: 260
Number of bands in calculation: 82
Number of valence electrons: 129
Bands to converge: occupied

... initialized

Initializing position-dependent things.

Density initialized from atomic densities
Creating initial wave functions:
  82 bands from LCAO basis set

                    Li
           Li      Li
              N        N  Li
             Li   Li Li
              LiN   Li LiN
                            Li
           Li   Li Li    Li
              N   Li   N  Li
             Li      Li
              LiN   Li LiN  Li

           Li N Li Li  N Li
                  Li      Li
             Li N    Li  N
              Li    Li Li   Li

[...]

                Li       Li

Positions:
   0 Li     1.753189    1.012426    1.530029    ( 0.0000,  0.0000,  0.0000)
   1 Li    -0.000191    4.049369    1.530029    ( 0.0000,  0.0000,  0.0000)
   2 Li     5.259899    1.012426    1.530029    ( 0.0000,  0.0000,  0.0000)
   3 Li     3.506519    4.049369    1.530029    ( 0.0000,  0.0000,  0.0000)
   4 Li     1.749738    1.015482   13.243537    ( 0.0000,  0.0000,  0.0000)
   5 Li     0.005053    4.051924   13.303137    ( 0.0000,  0.0000,  0.0000)
   6 Li     5.261067    1.007035   13.302973    ( 0.0000,  0.0000,  0.0000)
   7 Li     3.499347    4.051719   13.226748    ( 0.0000,  0.0000,  0.0000)
   8 Li     3.534312   -0.042279   15.673131    ( 0.0000,  0.0000,  0.0000)
   9 Li     1.682619    3.058598   15.057603    ( 0.0000,  0.0000,  0.0000)
  10 Li     6.981420    0.027863   15.120341    ( 0.0000,  0.0000,  0.0000)
  11 Li     5.326917    3.026889   15.527700    ( 0.0000,  0.0000,  0.0000)
  12 Li    -0.056424    2.031910   15.673905    ( 0.0000,  0.0000,  0.0000)
  13 Li    -1.714259    5.050522   15.109916    ( 0.0000,  0.0000,  0.0000)
  14 Li     3.557456    1.973710   15.043031    ( 0.0000,  0.0000,  0.0000)
  15 Li     1.711484    5.112721   15.548522    ( 0.0000,  0.0000,  0.0000)
  16 Li     3.506465    0.000182    3.465092    ( 0.0000,  0.0000,  0.0000)
  17 Li     1.753085    3.037125    3.465092    ( 0.0000,  0.0000,  0.0000)
  18 Li     7.013175    0.000182    3.465092    ( 0.0000,  0.0000,  0.0000)
  19 Li     5.259795    3.037125    3.465092    ( 0.0000,  0.0000,  0.0000)
  20 Li    -0.000262    2.024791    3.465092    ( 0.0000,  0.0000,  0.0000)
  21 Li    -1.753642    5.061734    3.465092    ( 0.0000,  0.0000,  0.0000)
  22 Li     3.506448    2.024791    3.465092    ( 0.0000,  0.0000,  0.0000)
  23 Li     1.753068    5.061734    3.465092    ( 0.0000,  0.0000,  0.0000)
  24 Li     1.753084    1.012487    5.431887    ( 0.0000,  0.0000,  0.0000)
  25 Li    -0.000296    4.049430    5.431887    ( 0.0000,  0.0000,  0.0000)
  26 Li     5.259794    1.012487    5.431887    ( 0.0000,  0.0000,  0.0000)
  27 Li     3.506414    4.049430    5.431887    ( 0.0000,  0.0000,  0.0000)
  28 Li     3.506429    0.000182    7.378027    ( 0.0000,  0.0000,  0.0000)
  29 Li     1.753049    3.037125    7.378027    ( 0.0000,  0.0000,  0.0000)
  30 Li     7.013139    0.000182    7.378027    ( 0.0000,  0.0000,  0.0000)
  31 Li     5.259759    3.037125    7.378027    ( 0.0000,  0.0000,  0.0000)
  32 Li    -0.000297    2.024791    7.378027    ( 0.0000,  0.0000,  0.0000)
  33 Li    -1.753677    5.061734    7.378027    ( 0.0000,  0.0000,  0.0000)
  34 Li     3.506413    2.024791    7.378027    ( 0.0000,  0.0000,  0.0000)
  35 Li     1.753033    5.061734    7.378027    ( 0.0000,  0.0000,  0.0000)
  36 Li     1.752736    1.013521    9.335713    ( 0.0000,  0.0000,  0.0000)
  37 Li     0.000890    4.049731    9.352984    ( 0.0000,  0.0000,  0.0000)
  38 Li     5.259676    1.011594    9.352986    ( 0.0000,  0.0000,  0.0000)
  39 Li     3.504200    4.050049    9.332435    ( 0.0000,  0.0000,  0.0000)
  40 Li     3.506458   -0.000537   11.343397    ( 0.0000,  0.0000,  0.0000)
  41 Li     1.750080    3.038106   11.265786    ( 0.0000,  0.0000,  0.0000)
  42 Li     7.011468    0.002229   11.267371    ( 0.0000,  0.0000,  0.0000)
  43 Li     5.261499    3.037166   11.324886    ( 0.0000,  0.0000,  0.0000)
  44 Li    -0.003602    2.026016   11.343382    ( 0.0000,  0.0000,  0.0000)
  45 Li    -1.752670    5.061833   11.267978    ( 0.0000,  0.0000,  0.0000)
  46 Li     3.507491    2.023864   11.266395    ( 0.0000,  0.0000,  0.0000)
  47 Li     1.750213    5.064423   11.323771    ( 0.0000,  0.0000,  0.0000)
  48 N      1.753084    1.012487    3.439048    ( 0.0000,  0.0000,  0.0000)
  49 N     -0.000296    4.049430    3.439048    ( 0.0000,  0.0000,  0.0000)
  50 N      5.259794    1.012487    3.439048    ( 0.0000,  0.0000,  0.0000)
  51 N      3.506414    4.049430    3.439048    ( 0.0000,  0.0000,  0.0000)
  52 N      1.753031    1.012517    7.360963    ( 0.0000,  0.0000,  0.0000)
  53 N     -0.000349    4.049460    7.360963    ( 0.0000,  0.0000,  0.0000)
  54 N      5.259741    1.012517    7.360963    ( 0.0000,  0.0000,  0.0000)
  55 N      3.506361    4.049460    7.360963    ( 0.0000,  0.0000,  0.0000)
  56 N      1.751994    1.013043   11.270383    ( 0.0000,  0.0000,  0.0000)
  57 N     -0.001164    4.050301   11.307808    ( 0.0000,  0.0000,  0.0000)
  58 N      5.259233    1.012796   11.307781    ( 0.0000,  0.0000,  0.0000)
  59 N      3.505306    4.050378   11.261132    ( 0.0000,  0.0000,  0.0000)
  60 N      1.745042    1.004431   15.184828    ( 0.0000,  0.0000,  0.0000)
  61 N     -0.014659    4.057528   15.284966    ( 0.0000,  0.0000,  0.0000)
  62 N      5.268635    1.007298   15.284601    ( 0.0000,  0.0000,  0.0000)
  63 N      3.513676    4.063748   15.148325    ( 0.0000,  0.0000,  0.0000)
  64 Li     2.773426    2.720071   17.155535    ( 0.0000,  0.0000,  0.0000)

Unit cell:
           periodic     x           y           z      points  spacing
  1. axis:    yes    7.013420    0.000000    0.000000    40     0.1518
  2. axis:    yes   -3.506760    6.073886    0.000000    40     0.1518
  3. axis:    yes    0.000000    0.000000   29.936001   160     0.1871

  Lengths:   7.013420   7.013520  29.936001
  Angles:   90.000000  90.000000 120.000000

Effective grid spacing dv^(1/3) = 0.1708

                     log10-error:    total        iterations:
           time      wfs    density  energy       fermi  poisson
iter:   1  09:24:48                -274.693268    4
iter:   2  09:25:29  -0.99  -0.51  -262.248377    5
iter:   3  09:26:10  -0.41  -0.57  -278.488982    36
iter:   4  09:26:51  -1.86  -0.52  -251.059462    35
iter:   5  09:27:32  -2.71  -0.72  -248.369385    4
iter:   6  09:28:13  -1.38  -0.73  -245.858699    4
iter:   7  09:28:55  -1.43  -0.79  -240.094174    32
iter:   8  09:29:36  -1.61  -0.89  -237.874716    32
iter:   9  09:30:17  -2.11  -0.96  -238.526208    4
iter:  10  09:30:59  -1.94  -0.91  -237.529805    4
iter:  11  09:31:40  -1.52  -0.92  -246.515546    36
iter:  12  09:32:22  -1.92  -0.84  -235.783927    35
iter:  13  09:33:03  -2.15  -1.02  -248.435739    32
iter:  14  09:33:44  -2.08  -0.85  -245.400748    27
[...]
 12 Li    0.68635   -0.30268    0.15417
 13 Li   -0.26580    0.15556    0.16427
 14 Li   -0.07631    0.03029   -0.54934
 15 Li    0.55364   -0.46271   -0.03597
 16 Li    0.00006   -0.00015   -0.04062
 17 Li   -0.00004   -0.00008   -0.04071
 18 Li   -0.00005   -0.00010   -0.04078
 19 Li    0.00005   -0.00014   -0.04066
 20 Li   -0.00012    0.00010   -0.04062
 21 Li   -0.00003    0.00004   -0.04081
 22 Li   -0.00002    0.00005   -0.04075
 23 Li   -0.00011    0.00009   -0.04058
 24 Li    0.00004    0.00017   -0.04646
 25 Li    0.00020   -0.00002   -0.04305
 26 Li   -0.00005   -0.00006   -0.04306
 27 Li   -0.00021   -0.00008   -0.04703
 28 Li    0.00231   -0.00151    0.00932
 29 Li   -0.00315    0.00132    0.00116
 30 Li   -0.00247    0.00193    0.00339
 31 Li    0.00267   -0.00143    0.01044
 32 Li   -0.00323    0.00189    0.00932
 33 Li    0.00261   -0.00138    0.00538
 34 Li    0.00282   -0.00147    0.00308
 35 Li   -0.00335    0.00213    0.00654
 36 Li   -0.00123   -0.00437    0.00231
 37 Li   -0.00604    0.00084    0.01615
 38 Li    0.00028    0.00276    0.01592
 39 Li    0.00642    0.00126   -0.01104
 40 Li   -0.00646    0.01171    0.00974
 41 Li    0.00708   -0.00040    0.01773
 42 Li    0.00149   -0.00547   -0.00362
 43 Li   -0.01869    0.00314    0.02066
 44 Li    0.01602   -0.00046    0.00942
 45 Li   -0.00591   -0.00125    0.00099
 46 Li   -0.00496    0.00652    0.02109
 47 Li    0.01061   -0.01472    0.00872
 48 N    -0.00026    0.00005    0.07315
 49 N    -0.00024    0.00018    0.08532
 50 N    -0.00021    0.00025    0.08531
 51 N    -0.00005    0.00031    0.07263
 52 N     0.00018    0.00121    0.00496
 53 N     0.00149   -0.00016    0.06517
 54 N    -0.00031   -0.00074    0.06536
 55 N    -0.00191   -0.00030   -0.00889
 56 N    -0.00575   -0.00663   -0.01628
 57 N     0.00352    0.00081   -0.04046
 58 N     0.00006   -0.00322   -0.03881
 59 N     0.00236    0.00888   -0.03808
 60 N     0.37779    0.63658    0.26218
 61 N     0.34894   -0.13448    0.02417
 62 N    -0.28325    0.19495    0.04567
 63 N    -0.43919   -0.76772    0.62984
 64 Li    0.08182    0.14971   -0.62288

System changes: positions

[...]

Density initialized from wave functions

                    Li
           Li      Li
              N        N  Li
             Li   Li Li
              LiN   Li LiN
                            Li
           Li   Li Li    Li
              N   Li   N  Li
             Li      Li
              LiN   Li LiN  Li

[...]

                    Li
           Li      Li
              N       N   Li
             Li   Li Li
              LiN   Li LiN  Li

           Li   Li Li    Li
              N   Li   N  Li
             Li      Li
              LiN   Li LiN  Li

           Li N Li Li  N Li
                  Li      Li
             Li N    Li  N
              Li    Li Li   Li
           Li      Li
              N Li     N Li
                  Li      Li
             Li N    Li  N
              Li    Li Li   Li

[...]

                    Li
           Li      Li
              N       N   Li
             Li   Li Li
              LiN   Li LiN  Li

[...]

                   LLi
           Li N
             Li       N   Li
                 NLi Li  N
              Li    Li Li   Li

[...]

                   LLi
           Li N       N
             Li           Li
                 NLi Li  N
              Li    Li Li   Li

[...]

                   LLi
           Li N       N
             Li           Li
                N LiLii  N
              Li       Li   Li

[...]

           Li N Li Li  N Li
                  Li      Li
             Li N    Li  N
              Li    Li Li   Li
           Li      Li
              N Li     N Li
             Li   Li Li   Li
                N        N
              Li    Li Li   Li

[...]

                   LLi
           Li N       N
             Li           Li
                NLi Lii  N
              Li       Li   Li

[...]

           Li N Li Li  N Li
                  Li      Li
             Li N    Li  N
              Li    Li Li   Li
           Li      Li
              N Li     N Li
             Li   Li Li   Li
              LiN      LiN
                    Li      Li

[...]

           Li      LLi
              N       N   Li
             Li  Li
              Li N  LiiLiN
                            Li
           Li   Li Li    Li
              N        N  Li
             Li   Li Li
              LiN   Li LiN
                            Li
           Li   Li Li    Li
              N   Li   N  Li
             Li      Li
              LiN   Li LiN  Li

[...]

           Li      LLi
              N       N   Li
             Li  Li
              Li N  LiiLiN
                            Li
           Li   Li Li    Li
              N   Li   N  Li
             Li      Li
              LiN   Li LiN
                            Li
           Li   Li Li    Li
              N   Li   N  Li
             Li      Li
              LiN   Li LiN  Li

[...]

           Li      LLi
              N       N   Li
             Li  Li
              Li N  LiiLiN
                            Li
           Li   Li Li    Li
              N   Li   N  Li
             Li      Li
              LiN   Li LiN  Li

[...]

           Li      LLi
              N       N   Li
             Li  Li
              Li N  LiiLiN
                            Li
           Li   Li Li    Li
              N   Li   N  Li
             Li      Li
              LiN   Li LiN  Li

[...]

           Li      LLi
              N       N   Li
             Li  Li
              Li N  LiLiiN
                            Li
           Li   Li Li    Li
              N   Li   N  Li
             Li      Li
              LiN   Li LiN  Li

[...]

           Li      LLi
              N       N   Li
             Li  Li
              Li N  LiLiiN
                            Li
           Li   Li Li    Li
              N   Li   N  Li
             Li      Li
              LiN   Li LiN  Li

           Li N Li Li  N Li
                  Li      Li
             Li      Li
              LiN   Li LiN  Li

[...]

           Li      LLi
              N       N   Li
             Li  Li
              Li N  LiLiiN  Li

[...]

           Li      LLi
              N       N   Li
             Li  Li
              Li N  LiLiiN  Li

[...]

           Li      LLi
              N       N   Li
             Li  Li
              Li N  LiiLiN  Li

           Li   Li Li    Li
              N   Li   N  Li
             Li      Li
              LiN   Li LiN  Li

[...]

           Li   Li Li    Li
              N   Li   N  Li
             Li      Li
              LiN   Li LiN
                            Li
           Li N Li Li  N Li
                  Li      Li
             Li N    Li  N
              Li    Li Li   Li

[...]

System changes: positions

Initializing position-dependent things.

Density initialized from wave functions

           Li      LLi
              N       N   Li
             Li  Li
              Li N  LiiLiN  Li

           Li   Li Li    Li
              N   Li   N  Li
             Li      Li
              LiN   Li LiN
                            Li
           Li N Li Li  N Li
                  Li      Li
             Li N    Li  N
              Li    Li Li   Li

           Li N Li Li  N Li
                  Li      Li
             Li N    Li  N
              Li    Li Li   Li

                Li       Li

Positions:
   0 Li     1.753189    1.012426    1.530029    ( 0.0000,  0.0000,  0.0000)
   1 Li    -0.000191    4.049369    1.530029    ( 0.0000,  0.0000,  0.0000)
   2 Li     5.259899    1.012426    1.530029    ( 0.0000,  0.0000,  0.0000)
   3 Li     3.506519    4.049369    1.530029    ( 0.0000,  0.0000,  0.0000)
   4 Li     1.631692    0.804942   13.259916    ( 0.0000,  0.0000,  0.0000)
   5 Li    -0.202080    4.188125   13.329992    ( 0.0000,  0.0000,  0.0000)
   6 Li     5.475832    0.904087   13.317670    ( 0.0000,  0.0000,  0.0000)
   7 Li     3.601496    4.221069   13.214291    ( 0.0000,  0.0000,  0.0000)
   8 Li     3.520484    0.107470   15.746002    ( 0.0000,  0.0000,  0.0000)
   9 Li     1.602718    3.056479   14.532767    ( 0.0000,  0.0000,  0.0000)
  10 Li     6.994754    0.016298   15.319506    ( 0.0000,  0.0000,  0.0000)
  11 Li     5.198164    2.964843   15.491106    ( 0.0000,  0.0000,  0.0000)
  12 Li     0.089799    2.089131   15.776659    ( 0.0000,  0.0000,  0.0000)
  13 Li    -1.738131    5.052633   15.362974    ( 0.0000,  0.0000,  0.0000)
  14 Li     3.593505    1.908592   14.518466    ( 0.0000,  0.0000,  0.0000)
  15 Li     1.728486    4.966898   15.524861    ( 0.0000,  0.0000,  0.0000)
  16 Li     3.506465    0.000182    3.465092    ( 0.0000,  0.0000,  0.0000)
  17 Li     1.753085    3.037125    3.465092    ( 0.0000,  0.0000,  0.0000)
  18 Li     7.013175    0.000182    3.465092    ( 0.0000,  0.0000,  0.0000)
  19 Li     5.259795    3.037125    3.465092    ( 0.0000,  0.0000,  0.0000)
  20 Li    -0.000262    2.024791    3.465092    ( 0.0000,  0.0000,  0.0000)
  21 Li    -1.753642    5.061734    3.465092    ( 0.0000,  0.0000,  0.0000)
  22 Li     3.506448    2.024791    3.465092    ( 0.0000,  0.0000,  0.0000)
  23 Li     1.753068    5.061734    3.465092    ( 0.0000,  0.0000,  0.0000)
  24 Li     1.753084    1.012487    5.431887    ( 0.0000,  0.0000,  0.0000)
  25 Li    -0.000296    4.049430    5.431887    ( 0.0000,  0.0000,  0.0000)
  26 Li     5.259794    1.012487    5.431887    ( 0.0000,  0.0000,  0.0000)
  27 Li     3.506414    4.049430    5.431887    ( 0.0000,  0.0000,  0.0000)
  28 Li     3.506429    0.000182    7.378027    ( 0.0000,  0.0000,  0.0000)
  29 Li     1.753049    3.037125    7.378027    ( 0.0000,  0.0000,  0.0000)
  30 Li     7.013139    0.000182    7.378027    ( 0.0000,  0.0000,  0.0000)
  31 Li     5.259759    3.037125    7.378027    ( 0.0000,  0.0000,  0.0000)
  32 Li    -0.000297    2.024791    7.378027    ( 0.0000,  0.0000,  0.0000)
  33 Li    -1.753677    5.061734    7.378027    ( 0.0000,  0.0000,  0.0000)
  34 Li     3.506413    2.024791    7.378027    ( 0.0000,  0.0000,  0.0000)
  35 Li     1.753033    5.061734    7.378027    ( 0.0000,  0.0000,  0.0000)
  36 Li     1.768191    1.042598    9.335929    ( 0.0000,  0.0000,  0.0000)
  37 Li     0.020417    4.038462    9.368150    ( 0.0000,  0.0000,  0.0000)
  38 Li     5.241319    1.025625    9.365448    ( 0.0000,  0.0000,  0.0000)
  39 Li     3.490145    4.023898    9.322334    ( 0.0000,  0.0000,  0.0000)
  40 Li     3.511239    0.011099   11.407004    ( 0.0000,  0.0000,  0.0000)
  41 Li     1.753383    3.041043   11.336627    ( 0.0000,  0.0000,  0.0000)
  42 Li     7.007976    0.007268   11.155340    ( 0.0000,  0.0000,  0.0000)
  43 Li     5.257982    3.035334   11.392649    ( 0.0000,  0.0000,  0.0000)
  44 Li     0.003126    2.036813   11.384960    ( 0.0000,  0.0000,  0.0000)
  45 Li    -1.744845    5.060708   11.142484    ( 0.0000,  0.0000,  0.0000)
  46 Li     3.508603    2.027684   11.303270    ( 0.0000,  0.0000,  0.0000)
  47 Li     1.748187    5.061050   11.366014    ( 0.0000,  0.0000,  0.0000)
  48 N      1.753084    1.012487    3.439048    ( 0.0000,  0.0000,  0.0000)
  49 N     -0.000296    4.049430    3.439048    ( 0.0000,  0.0000,  0.0000)
  50 N      5.259794    1.012487    3.439048    ( 0.0000,  0.0000,  0.0000)
  51 N      3.506414    4.049430    3.439048    ( 0.0000,  0.0000,  0.0000)
  52 N      1.753031    1.012517    7.360963    ( 0.0000,  0.0000,  0.0000)
  53 N     -0.000349    4.049460    7.360963    ( 0.0000,  0.0000,  0.0000)
  54 N      5.259741    1.012517    7.360963    ( 0.0000,  0.0000,  0.0000)
  55 N      3.506361    4.049460    7.360963    ( 0.0000,  0.0000,  0.0000)
  56 N      1.748549    1.007310   11.281461    ( 0.0000,  0.0000,  0.0000)
  57 N     -0.008824    4.060352   11.335035    ( 0.0000,  0.0000,  0.0000)
  58 N      5.270976    1.011725   11.329117    ( 0.0000,  0.0000,  0.0000)
  59 N      3.511103    4.060544   11.248983    ( 0.0000,  0.0000,  0.0000)
  60 N      1.803523    1.100362   15.192309    ( 0.0000,  0.0000,  0.0000)
  61 N     -0.023856    4.048109   15.261782    ( 0.0000,  0.0000,  0.0000)
  62 N      5.269054    0.990683   15.244827    ( 0.0000,  0.0000,  0.0000)
  63 N      3.448951    3.948207   15.118920    ( 0.0000,  0.0000,  0.0000)
  64 Li     2.681381    2.590485   16.466076    ( 0.0000,  0.0000,  0.0000)

Unit cell:
           periodic     x           y           z      points  spacing
  1. axis:    yes    7.013420    0.000000    0.000000    40     0.1518
  2. axis:    yes   -3.506760    6.073886    0.000000    40     0.1518
  3. axis:    yes    0.000000    0.000000   29.936001   160     0.1871

  Lengths:   7.013420   7.013520  29.936001
  Angles:   90.000000  90.000000 120.000000

Effective grid spacing dv^(1/3) = 0.1708

                     log10-error:    total        iterations:
           time      wfs    density  energy       fermi  poisson
iter:   1  17:01:33  -4.45         -235.048291    3
iter:   2  17:02:15  -4.51  -2.56  -235.091518    4
iter:   3  17:02:56  -5.12  -2.30  -235.050375    3
iter:   4  17:03:37  -5.26  -2.97  -235.046174    3
iter:   5  17:04:19  -6.33  -2.96  -235.047849    2
iter:   6  17:05:01  -6.66  -3.60  -235.047016    2
iter:   7  17:05:42  -6.51  -3.53  -235.047821    2
iter:   8  17:06:24  -7.27  -3.78  -235.047484    2
iter:   9  17:07:06  -7.65  -4.20  -235.047470    2

Converged after 9 iterations.

Dipole moment: (-0.249132, -0.140441, -11.481478) |e|*Ang

Energy contributions relative to reference atoms: (reference = -33644.147259)

Kinetic:       +254.402472
Potential:     -187.821831
External:        +0.000000
XC:            -300.297899
Entropy (-ST):   -0.074048
Local:           -1.293188
Free energy:   -235.084494
Extrapolated:  -235.047470

Fermi level: -0.33690

Showing only first 2 kpts
 Kpt  Band  Eigenvalues  Occupancy
  0    62     -0.63997    0.07981
  0    63     -0.15320    0.00198
  0    64     -0.06440    0.00034
  0    65      0.02063    0.00006

  1    62     -0.69856    0.15988
  1    63     -0.36891    0.10477
  1    64     -0.23233    0.01759
  1    65      0.23647    0.00000

Forces in eV/Ang:
  0 Li   -0.00006    0.00007   -0.06057
  1 Li   -0.00007    0.00004   -0.06061
  2 Li   -0.00008    0.00005   -0.06057
  3 Li   -0.00008    0.00003   -0.06047
  4 Li    0.00224    0.00408    0.00061
  5 Li    0.00370    0.00572   -0.00874
  6 Li   -0.00204    0.00509   -0.01467
  7 Li   -0.00759   -0.01073    0.02663
  8 Li    0.00227   -0.02158    0.00953
  9 Li   -0.00270   -0.01378   -0.01502
 10 Li   -0.01960    0.01342   -0.02120
 11 Li    0.01019    0.01255   -0.02417
 12 Li   -0.01898   -0.00853    0.02186
 13 Li    0.01696   -0.01191    0.00173
 14 Li   -0.01280   -0.00761   -0.01957
 15 Li    0.00996    0.01295   -0.01160
 16 Li    0.00039   -0.00024   -0.04872
 17 Li   -0.00019    0.00013   -0.04854
 18 Li   -0.00035   -0.00004   -0.04974
 19 Li    0.00019   -0.00032   -0.04860
 20 Li   -0.00036    0.00035   -0.04867
 21 Li    0.00018   -0.00020   -0.04976
 22 Li    0.00024    0.00002   -0.04858
 23 Li   -0.00034    0.00012   -0.04860
 24 Li    0.00058    0.00118   -0.07264
 25 Li    0.00070   -0.00049   -0.06492
 26 Li   -0.00064    0.00039   -0.06544
 27 Li   -0.00072   -0.00119   -0.07441
 28 Li    0.00316   -0.01269    0.01027
 29 Li   -0.01206    0.00696   -0.04101
 30 Li   -0.00443    0.00332    0.02552
 31 Li    0.01325    0.00405    0.00727
 32 Li   -0.01301   -0.00254    0.00589
 33 Li    0.00535   -0.00189    0.02615
 34 Li    0.01143   -0.00679   -0.04133
 35 Li   -0.00449    0.01373    0.00552
 36 Li    0.01630    0.02672    0.00434
 37 Li    0.01200   -0.00562   -0.00477
 38 Li   -0.01181    0.00802   -0.00709
 39 Li   -0.01350   -0.02448    0.00327
 40 Li   -0.00080   -0.00302    0.00934
 41 Li   -0.00080    0.00137    0.01231
 42 Li   -0.00090   -0.00024    0.00080
 43 Li    0.00120    0.00224   -0.00131
 44 Li   -0.00217   -0.00172   -0.00127
 45 Li    0.00147   -0.00134   -0.00361
 46 Li    0.00151   -0.00002   -0.00634
 47 Li    0.00107    0.00171   -0.01357
 48 N    -0.00062   -0.00064    0.11147
 49 N    -0.00071    0.00061    0.11679
 50 N     0.00038   -0.00016    0.11332
 51 N     0.00020    0.00083    0.11055
 52 N     0.01231    0.02352    0.06861
 53 N     0.01678   -0.01020    0.15400
 54 N    -0.01567    0.00986    0.14385
 55 N    -0.01318   -0.02186    0.00969
 56 N    -0.00163   -0.00295    0.00270
 57 N     0.00229   -0.00172    0.00031
 58 N    -0.00273    0.00142   -0.00322
 59 N     0.00208    0.00296    0.01727
 60 N     0.00270    0.00058    0.01370
 61 N    -0.02546    0.01275    0.01721
 62 N     0.02112   -0.01554    0.01053
 63 N     0.00738    0.01019   -0.00489
 64 Li    0.00844    0.00631   -0.03425

Date: Tue Sep  7 17:07:25 2021