User:   jngwng01@n944028
Date:   Tue Sep  7 09:23:09 2021
Arch:   x86_64
Pid:    25571
Python: 3.8.5
gpaw:   /uls/7/gpaw-20.1.0/lib/python3.8/site-packages/gpaw-20.1.0-py3.8-linux-x86_64.egg/gpaw
_gpaw:  /uls/7/gpaw-20.1.0/lib/python3.8/site-packages/gpaw-20.1.0-py3.8-linux-x86_64.egg/
        _gpaw.cpython-38-x86_64-linux-gnu.so
ase:    /uls/7/gpaw-20.1.0/lib/python3.8/site-packages/ase-3.20.1-py3.8.egg/ase (version 3.20.1)
numpy:  /uls/7/gpaw-20.1.0/lib/python3.8/site-packages/numpy (version 1.19.2)
scipy:  /uls/7/gpaw-20.1.0/lib/python3.8/site-packages/scipy-1.5.2-py3.8-linux-x86_64.egg/scipy (version 1.5.2)
units:  Angstrom and eV
cores: 16
OMP_NUM_THREADS: 1

Input parameters:
  convergence: {density: 0.0001,
                eigenstates: 1e-07}
  kpts: [5 5 1]
  mode: {ecut: 500.0,
         gammacentered: False,
         name: pw}
  occupations: {name: fermi-dirac,
                width: 0.05}
  xc: PBE

System changes: positions, numbers, cell, pbc, initial_charges, initial_magmoms

Initialize ...

Li-setup:
  name: Lithium
  id: 830b4218f175192f93f959cfc0aad614
  Z: 3
  valence: 1
  core: 2
  charge: 0.0
  file: /uls/7/gpaw-20.1.0/setups/gpaw-setups-0.9.20000/Li.PBE.gz
  compensation charges: gauss, rc=0.33, lmax=2
  cutoffs: 1.91(filt), 2.55(core),
  valence states:
                energy  radius
    2s(1.00)    -2.874   1.058
    2p(0.00)    -1.090   1.058
    *s          24.337   1.058

  Using partial waves for Li as LCAO basis

N-setup:
  name: Nitrogen
  id: f7500608b86eaa90eef8b1d9a670dc53
  Z: 7
  valence: 5
  core: 2
  charge: 0.0
  file: /uls/7/gpaw-20.1.0/setups/gpaw-setups-0.9.20000/N.PBE.gz
  compensation charges: gauss, rc=0.18, lmax=2
  cutoffs: 1.11(filt), 0.96(core),
  valence states:
                energy  radius
    2s(2.00)   -18.583   0.603
    2p(3.00)    -7.089   0.529
    *s           8.629   0.603
    *p          20.123   0.529
    *d           0.000   0.577

  Using partial waves for N as LCAO basis

Reference energy: -33644.147259

Spin-paired calculation

Occupation numbers:
  Fermi-Dirac: width=0.0500 eV

Convergence criteria:
  Maximum total energy change: 0.0005 eV / electron
  Maximum integral of absolute density change: 0.0001 electrons
  Maximum integral of absolute eigenstate change: 1e-07 eV^2
  Maximum number of iterations: 333

Symmetries present (total): 1

  ( 1  0  0)
  ( 0  1  0)
  ( 0  0  1)

25 k-points: 5 x 5 x 1 Monkhorst-Pack grid
13 k-points in the irreducible part of the Brillouin zone
       k-points in crystal coordinates                weights
   0:     0.00000000    0.00000000    0.00000000          1/25
   1:     0.00000000    0.20000000    0.00000000          2/25
   2:     0.00000000    0.40000000    0.00000000          2/25
   3:     0.20000000   -0.40000000    0.00000000          2/25
   4:     0.20000000   -0.20000000    0.00000000          2/25
   5:     0.20000000    0.00000000    0.00000000          2/25
   6:     0.20000000    0.20000000    0.00000000          2/25
   7:     0.20000000    0.40000000    0.00000000          2/25
   8:     0.40000000   -0.40000000    0.00000000          2/25
   9:     0.40000000   -0.20000000    0.00000000          2/25
          ...
  12:     0.40000000    0.40000000    0.00000000          2/25

Wave functions: Plane wave expansion
  Cutoff energy: 500.000 eV
  Number of coefficients (min, max): 32263, 32394
  Pulay-stress correction: 0.000000 eV/Ang^3 (de/decut=0.000000)
  Using FFTW library
  ScaLapack parameters: grid=1x1, blocksize=None
  Wavefunction extrapolation:
    Improved wavefunction reuse through dual PAW basis

Eigensolver
   Davidson(niter=2, smin=None, normalize=True)

Densities:
  Coarse grid: 40*40*160 grid
  Fine grid: 80*80*320 grid
  Total Charge: 0.000000

Density mixing:
  Method: separate
  Backend: pulay
  Linear mixing parameter: 0.05
  Mixing with 5 old densities
  Damping of long wave oscillations: 50

Hamiltonian:
  XC and Coulomb potentials evaluated on a 80*80*320 grid
  Using the PBE Exchange-Correlation functional

XC parameters: PBE with 2 nearest neighbor stencil

Total number of cores used: 16
Parallelization over k-points: 8
Domain decomposition: 1 x 1 x 2
                      2 x 2 x 4 (xc only)

Number of atoms: 65
Number of atomic orbitals: 260
Number of bands in calculation: 82
Number of valence electrons: 129
Bands to converge: occupied

... initialized

Initializing position-dependent things.

Density initialized from atomic densities
Creating initial wave functions:
  82 bands from LCAO basis set

                      Li
           Li      Li
             Li        N  Li
                 Li Lii
              LiN      LiN  Li

           Li   Li Li    Li
              N   Li   N  Li
             Li      Li
              LiN   Li LiN  Li

           Li N Li Li  N Li
                  Li      Li
             Li N    Li  N
              Li    Li Li   Li

           Li N Li Li  N Li
             Li   Li Li   Li
                N        N
              Li    Li Li   Li

                Li       Li

Positions:
   0 Li     1.753189    1.012426    1.530029    ( 0.0000,  0.0000,  0.0000)
   1 Li    -0.000191    4.049369    1.530029    ( 0.0000,  0.0000,  0.0000)
   2 Li     5.259899    1.012426    1.530029    ( 0.0000,  0.0000,  0.0000)
   3 Li     3.506519    4.049369    1.530029    ( 0.0000,  0.0000,  0.0000)
   4 Li     1.748181    1.016111   13.284819    ( 0.0000,  0.0000,  0.0000)
   5 Li     0.008194    4.052083   13.304774    ( 0.0000,  0.0000,  0.0000)
   6 Li     5.260985    1.003715   13.304704    ( 0.0000,  0.0000,  0.0000)
   7 Li     3.496766    4.053515   13.188685    ( 0.0000,  0.0000,  0.0000)
   8 Li     3.511482   -0.013194   15.955512    ( 0.0000,  0.0000,  0.0000)
   9 Li     1.680256    3.009311   15.113577    ( 0.0000,  0.0000,  0.0000)
  10 Li     7.001670    0.065285   15.125787    ( 0.0000,  0.0000,  0.0000)
  11 Li     5.338212    3.003986   15.240883    ( 0.0000,  0.0000,  0.0000)
  12 Li    -0.022956    2.027778   15.955620    ( 0.0000,  0.0000,  0.0000)
  13 Li    -1.691441    5.087541   15.110266    ( 0.0000,  0.0000,  0.0000)
  14 Li     3.515527    1.945925   15.096962    ( 0.0000,  0.0000,  0.0000)
  15 Li     1.687916    5.110718   15.272531    ( 0.0000,  0.0000,  0.0000)
  16 Li     3.506465    0.000182    3.465092    ( 0.0000,  0.0000,  0.0000)
  17 Li     1.753085    3.037125    3.465092    ( 0.0000,  0.0000,  0.0000)
  18 Li     7.013175    0.000182    3.465092    ( 0.0000,  0.0000,  0.0000)
  19 Li     5.259795    3.037125    3.465092    ( 0.0000,  0.0000,  0.0000)
  20 Li    -0.000262    2.024791    3.465092    ( 0.0000,  0.0000,  0.0000)
  21 Li    -1.753642    5.061734    3.465092    ( 0.0000,  0.0000,  0.0000)
  22 Li     3.506448    2.024791    3.465092    ( 0.0000,  0.0000,  0.0000)
  23 Li     1.753068    5.061734    3.465092    ( 0.0000,  0.0000,  0.0000)
  24 Li     1.753084    1.012487    5.431887    ( 0.0000,  0.0000,  0.0000)
  25 Li    -0.000296    4.049430    5.431887    ( 0.0000,  0.0000,  0.0000)
  26 Li     5.259794    1.012487    5.431887    ( 0.0000,  0.0000,  0.0000)
  27 Li     3.506414    4.049430    5.431887    ( 0.0000,  0.0000,  0.0000)
  28 Li     3.506429    0.000182    7.378027    ( 0.0000,  0.0000,  0.0000)
  29 Li     1.753049    3.037125    7.378027    ( 0.0000,  0.0000,  0.0000)
  30 Li     7.013139    0.000182    7.378027    ( 0.0000,  0.0000,  0.0000)
  31 Li     5.259759    3.037125    7.378027    ( 0.0000,  0.0000,  0.0000)
  32 Li    -0.000297    2.024791    7.378027    ( 0.0000,  0.0000,  0.0000)
  33 Li    -1.753677    5.061734    7.378027    ( 0.0000,  0.0000,  0.0000)
  34 Li     3.506413    2.024791    7.378027    ( 0.0000,  0.0000,  0.0000)
  35 Li     1.753033    5.061734    7.378027    ( 0.0000,  0.0000,  0.0000)
  36 Li     1.752346    1.013305    9.347116    ( 0.0000,  0.0000,  0.0000)
  37 Li     0.001411    4.049879    9.352916    ( 0.0000,  0.0000,  0.0000)
  38 Li     5.259998    1.010917    9.352930    ( 0.0000,  0.0000,  0.0000)
  39 Li     3.503480    4.050719    9.322022    ( 0.0000,  0.0000,  0.0000)
  40 Li     3.505136    0.000510   11.382420    ( 0.0000,  0.0000,  0.0000)
  41 Li     1.748953    3.036114   11.266575    ( 0.0000,  0.0000,  0.0000)
  42 Li     7.012181    0.004054   11.267288    ( 0.0000,  0.0000,  0.0000)
  43 Li     5.261979    3.036221   11.287466    ( 0.0000,  0.0000,  0.0000)
  44 Li    -0.002742    2.025799   11.382445    ( 0.0000,  0.0000,  0.0000)
  45 Li    -1.751629    5.063253   11.268139    ( 0.0000,  0.0000,  0.0000)
  46 Li     3.506342    2.022106   11.267501    ( 0.0000,  0.0000,  0.0000)
  47 Li     1.748799    5.064574   11.285771    ( 0.0000,  0.0000,  0.0000)
  48 N      1.753084    1.012487    3.439048    ( 0.0000,  0.0000,  0.0000)
  49 N     -0.000296    4.049430    3.439048    ( 0.0000,  0.0000,  0.0000)
  50 N      5.259794    1.012487    3.439048    ( 0.0000,  0.0000,  0.0000)
  51 N      3.506414    4.049430    3.439048    ( 0.0000,  0.0000,  0.0000)
  52 N      1.753031    1.012517    7.360963    ( 0.0000,  0.0000,  0.0000)
  53 N     -0.000349    4.049460    7.360963    ( 0.0000,  0.0000,  0.0000)
  54 N      5.259741    1.012517    7.360963    ( 0.0000,  0.0000,  0.0000)
  55 N      3.506361    4.049460    7.360963    ( 0.0000,  0.0000,  0.0000)
  56 N      1.751796    1.013118   11.296066    ( 0.0000,  0.0000,  0.0000)
  57 N     -0.001137    4.050190   11.308662    ( 0.0000,  0.0000,  0.0000)
  58 N      5.258912    1.012680   11.308662    ( 0.0000,  0.0000,  0.0000)
  59 N      3.504906    4.050322   11.238459    ( 0.0000,  0.0000,  0.0000)
  60 N      1.748265    1.011482   15.255667    ( 0.0000,  0.0000,  0.0000)
  61 N     -0.009896    4.052302   15.287404    ( 0.0000,  0.0000,  0.0000)
  62 N      5.259716    1.010660   15.287281    ( 0.0000,  0.0000,  0.0000)
  63 N      3.510787    4.058625   15.072220    ( 0.0000,  0.0000,  0.0000)
  64 Li     3.296984    3.594599   17.022398    ( 0.0000,  0.0000,  0.0000)

Unit cell:
           periodic     x           y           z      points  spacing
  1. axis:    yes    7.013420    0.000000    0.000000    40     0.1518
  2. axis:    yes   -3.506760    6.073886    0.000000    40     0.1518
  3. axis:    yes    0.000000    0.000000   29.936001   160     0.1871

  Lengths:   7.013420   7.013520  29.936001
  Angles:   90.000000  90.000000 120.000000

Effective grid spacing dv^(1/3) = 0.1708

                     log10-error:    total        iterations:
           time      wfs    density  energy       fermi  poisson
iter:   1  09:24:45                -275.386426    4
iter:   2  09:25:24  -1.00  -0.51  -262.887271    5
iter:   3  09:26:04  -0.41  -0.57  -280.437905    37
iter:   4  09:26:44  -1.86  -0.53  -252.547794    35
iter:   5  09:27:24  -2.71  -0.71  -250.556577    3
iter:   6  09:28:03  -1.22  -0.72  -249.274081    34
iter:   7  09:28:43  -1.30  -0.78  -243.292666    26
iter:   8  09:29:22  -1.41  -0.88  -238.914135    4
iter:   9  09:30:03  -1.78  -0.97  -240.576113    5
iter:  10  09:30:42  -1.74  -0.91  -238.892303    4
iter:  11  09:31:22  -2.25  -0.93  -236.877602    32
iter:  12  09:32:03  -1.05  -0.96  -268.660372    36
[...]
iter:  24  09:40:04  -2.45  -1.31  -235.335017    4
iter:  25  09:40:43  -2.70  -1.36  -235.449110    3
iter:  26  09:41:24  -2.53  -1.39  -235.112218    3
iter:  27  09:42:04  -2.75  -1.46  -235.454558    2
iter:  28  09:42:43  -2.92  -1.43  -235.051212    3
iter:  29  09:43:23  -3.17  -1.57  -235.009997    2
iter:  30  09:44:03  -4.25  -1.63  -234.978414    3
iter:  31  09:44:42  -2.66  -1.64  -234.823829    4
iter:  32  09:45:23  -2.82  -1.74  -234.972898    5
iter:  33  09:46:03  -3.64  -1.67  -234.849738    4
iter:  34  09:46:43  -3.96  -1.77  -234.758979    4
iter:  35  09:47:23  -3.25  -1.89  -234.966809    4
iter:  36  09:48:03  -4.04  -1.72  -234.725755    4
iter:  37  09:48:43  -3.99  -2.11  -234.740837    3
iter:  38  09:49:22  -4.18  -2.04  -234.729698    3
iter:  39  09:50:02  -4.12  -2.21  -234.750336    4
iter:  40  09:50:43  -4.85  -2.14  -234.733836    3
iter:  41  09:51:22  -3.58  -2.25  -234.715364    3
iter:  42  09:52:02  -4.89  -2.44  -234.718339    3
iter:  43  09:52:42  -5.19  -2.73  -234.714538    3
iter:  44  09:53:22  -5.07  -2.49  -234.714539    3
iter:  45  09:54:02  -5.22  -3.00  -234.714040    3
iter:  46  09:54:43  -5.88  -3.00  -234.713691    2
iter:  47  09:55:23  -5.18  -3.00  -234.713761    3
iter:  48  09:56:03  -6.29  -3.21  -234.713995    2
iter:  49  09:56:43  -5.70  -3.30  -234.714831    2
iter:  50  09:57:24  -6.04  -3.26  -234.714206    2
iter:  51  09:58:04  -6.47  -3.53  -234.714360    2
iter:  52  09:58:43  -7.21  -3.66  -234.714114    2
iter:  53  09:59:23  -6.91  -3.65  -234.714446    2
iter:  54  10:00:03  -7.85  -3.87  -234.714371    2
iter:  55  10:00:43  -7.29  -3.99  -234.714306    2
iter:  56  10:01:24  -7.45  -4.03  -234.714284    2

Converged after 56 iterations.

Dipole moment: (-2.260627, 1.357243, -11.336811) |e|*Ang

Energy contributions relative to reference atoms: (reference = -33644.147259)

Kinetic:       +256.672682
Potential:     -189.703719
External:        +0.000000
XC:            -300.366336
Entropy (-ST):   -0.075213
Local:           -1.279305
Free energy:   -234.751891
Extrapolated:  -234.714284

Fermi level: -0.23548

Showing only first 2 kpts
 Kpt  Band  Eigenvalues  Occupancy
  0    62     -0.53463    0.07980
  0    63     -0.02662    0.00121
  0    64     -0.00025    0.00072
  0    65      0.21125    0.00001

  1    62     -0.60887    0.15991
  1    63     -0.28857    0.11888
  1    64     -0.11708    0.01370
  1    65      0.38546    0.00000

Forces in eV/Ang:
  0 Li   -0.00007    0.00005   -0.04827
  1 Li   -0.00007    0.00005   -0.04833
  2 Li   -0.00008    0.00005   -0.04833
  3 Li   -0.00008    0.00005   -0.04807
  4 Li    0.00038    0.00221    0.00730
  5 Li   -0.00442    0.00069    0.06832
  6 Li   -0.00480    0.01175    0.06903
  7 Li    0.00973   -0.00357   -0.06785
  8 Li   -0.23855    0.14025    0.19997
  9 Li   -0.05081   -0.05957   -0.28139
 10 Li    0.12532   -0.10154    0.11072
 11 Li   -0.27311    0.07298   -0.22465
 12 Li    0.23972   -0.13263    0.20916
 13 Li   -0.16292    0.05256    0.11547
 14 Li   -0.03293   -0.07036   -0.29935
 15 Li    0.18173   -0.18789   -0.20772
 16 Li    0.00003   -0.00013   -0.04148
 17 Li    0.00002   -0.00008   -0.04154
 18 Li   -0.00002   -0.00015   -0.04158
 19 Li   -0.00000   -0.00011   -0.04158
 20 Li   -0.00010    0.00008   -0.04148
 21 Li   -0.00009    0.00004   -0.04163
 22 Li   -0.00005    0.00010   -0.04160
 23 Li   -0.00006    0.00006   -0.04147
 24 Li   -0.00003    0.00011   -0.04821
 25 Li    0.00022    0.00001   -0.04702
 26 Li    0.00001   -0.00015   -0.04702
 27 Li   -0.00022    0.00004   -0.05263
 28 Li    0.00050   -0.00040    0.01058
 29 Li   -0.00379   -0.00127    0.00059
 30 Li   -0.00070    0.00379    0.00176
 31 Li    0.00320   -0.00179    0.00753
 32 Li   -0.00158    0.00096    0.01056
 33 Li    0.00334    0.00081    0.00476
 34 Li    0.00116   -0.00320    0.00355
 35 Li   -0.00415    0.00256    0.00159
 36 Li    0.00031   -0.00284    0.00991
 37 Li   -0.00745   -0.00012    0.01493
 38 Li   -0.00151    0.00535    0.01477
 39 Li    0.00769   -0.00197   -0.02280
 40 Li   -0.00190    0.00436    0.00608
 41 Li    0.01133    0.00518    0.01549
 42 Li    0.00034   -0.01256    0.00548
 43 Li   -0.01819    0.00734    0.02284
 44 Li    0.00834   -0.00104    0.00616
 45 Li   -0.01220   -0.00586    0.01208
 46 Li   -0.00237    0.01347    0.02137
 47 Li    0.01334   -0.01150    0.00830
 48 N    -0.00019    0.00010    0.08560
 49 N    -0.00026    0.00017    0.09115
 50 N    -0.00020    0.00028    0.09123
 51 N    -0.00006    0.00022    0.08048
 52 N    -0.00032    0.00078    0.05648
 53 N     0.00179    0.00007    0.07367
 54 N     0.00013   -0.00139    0.07377
 55 N    -0.00226    0.00051   -0.04087
 56 N    -0.00441   -0.00251   -0.02956
 57 N     0.00384    0.00164   -0.03611
 58 N     0.00144   -0.00543   -0.03497
 59 N    -0.00111    0.00440   -0.07906
 60 N     0.12705    0.21559   -0.02252
 61 N     0.22240   -0.00645    0.03429
 62 N    -0.09472    0.14258    0.05056
 63 N    -0.18870   -0.34554    0.94863
 64 Li    0.14593    0.27134   -0.60840

System changes: positions

[...]

Density initialized from wave functions

[...]

           Li   Li Li    Li
              N   Li   N  Li
             Li      Li
              LiN   Li LiN  Li

           Li N Li Li  N Li
                  Li      Li
             Li N    Li  N
              Li    Li Li   Li
           Li      Li
              N Li     N Li
             Li   Li Li   Li
                N        N
              Li    Li Li   Li

[...]

                      Li
           Li      Li
             Li  Li    N  Li
                    Lii
              LiN      LiN  Li

           Li N Li Li    Li
                  Li   N  Li
             Li N    Li  N
              Li    Li Li   Li

[...]

                      Li
           Li      Li
             Li  Li    N  Li
                    Lii
              LiN      LiN  Li

[...]

                      Li
           Li      Li
             Li        N  Li
                 Li Lii
              LiN      LiN  Li

           Li N Li Li    Li
                  Li   N  Li
             Li N    Li  N
              Li    Li Li   Li

[...]

                      Li
           Li N    Li
             Li        N  Li
                 Li Lii
              LiN      LiN  Li

[...]

                      Li
           Li N    Li
             Li        N  Li
                 Li Lii  N
              LiN      Li   Li

[...]

                      Li
           Li N    Li
             Li        N  Li
                 Li Lii  N
              LiN      Li   Li

[...]

                      Li
           Li N    Li
             Li        N  Li
                NLi Lii  N
              Li       Li   Li

[...]

System changes: positions

Initializing position-dependent things.

Density initialized from wave functions

                      Li
           Li N    Li
             Li        N  Li
                NLi Lii  N
              Li       Li   Li

           Li N Li Li  N Li
                  Li      Li
             Li N    Li  N
              Li    Li Li   Li

           Li N Li Li  N Li
                  Li      Li
             Li N    Li  N
              Li    Li Li   Li
           Li      Li
              N Li     N Li
             Li   Li Li   Li
                N        N
              Li    Li Li   Li

                Li       Li

Positions:
   0 Li     1.753189    1.012426    1.530029    ( 0.0000,  0.0000,  0.0000)
   1 Li    -0.000191    4.049369    1.530029    ( 0.0000,  0.0000,  0.0000)
   2 Li     5.259899    1.012426    1.530029    ( 0.0000,  0.0000,  0.0000)
   3 Li     3.506519    4.049369    1.530029    ( 0.0000,  0.0000,  0.0000)
   4 Li     1.673507    0.895194   13.338552    ( 0.0000,  0.0000,  0.0000)
   5 Li    -0.058910    4.133501   13.316719    ( 0.0000,  0.0000,  0.0000)
   6 Li     5.358676    0.969206   13.318831    ( 0.0000,  0.0000,  0.0000)
   7 Li     3.542595    4.144420   13.192421    ( 0.0000,  0.0000,  0.0000)
   8 Li     3.534121    0.074943   16.092503    ( 0.0000,  0.0000,  0.0000)
   9 Li     1.638599    2.983583   14.940723    ( 0.0000,  0.0000,  0.0000)
  10 Li     7.007396    0.066687   15.324325    ( 0.0000,  0.0000,  0.0000)
  11 Li     5.325895    2.997679   15.110895    ( 0.0000,  0.0000,  0.0000)
  12 Li     0.025420    2.098318   16.102596    ( 0.0000,  0.0000,  0.0000)
  13 Li    -1.703119    5.088507   15.318092    ( 0.0000,  0.0000,  0.0000)
  14 Li     3.509554    1.893960   14.900626    ( 0.0000,  0.0000,  0.0000)
  15 Li     1.689024    5.092946   15.179868    ( 0.0000,  0.0000,  0.0000)
  16 Li     3.506465    0.000182    3.465092    ( 0.0000,  0.0000,  0.0000)
  17 Li     1.753085    3.037125    3.465092    ( 0.0000,  0.0000,  0.0000)
  18 Li     7.013175    0.000182    3.465092    ( 0.0000,  0.0000,  0.0000)
  19 Li     5.259795    3.037125    3.465092    ( 0.0000,  0.0000,  0.0000)
  20 Li    -0.000262    2.024791    3.465092    ( 0.0000,  0.0000,  0.0000)
  21 Li    -1.753642    5.061734    3.465092    ( 0.0000,  0.0000,  0.0000)
  22 Li     3.506448    2.024791    3.465092    ( 0.0000,  0.0000,  0.0000)
  23 Li     1.753068    5.061734    3.465092    ( 0.0000,  0.0000,  0.0000)
  24 Li     1.753084    1.012487    5.431887    ( 0.0000,  0.0000,  0.0000)
  25 Li    -0.000296    4.049430    5.431887    ( 0.0000,  0.0000,  0.0000)
  26 Li     5.259794    1.012487    5.431887    ( 0.0000,  0.0000,  0.0000)
  27 Li     3.506414    4.049430    5.431887    ( 0.0000,  0.0000,  0.0000)
  28 Li     3.506429    0.000182    7.378027    ( 0.0000,  0.0000,  0.0000)
  29 Li     1.753049    3.037125    7.378027    ( 0.0000,  0.0000,  0.0000)
  30 Li     7.013139    0.000182    7.378027    ( 0.0000,  0.0000,  0.0000)
  31 Li     5.259759    3.037125    7.378027    ( 0.0000,  0.0000,  0.0000)
  32 Li    -0.000297    2.024791    7.378027    ( 0.0000,  0.0000,  0.0000)
  33 Li    -1.753677    5.061734    7.378027    ( 0.0000,  0.0000,  0.0000)
  34 Li     3.506413    2.024791    7.378027    ( 0.0000,  0.0000,  0.0000)
  35 Li     1.753033    5.061734    7.378027    ( 0.0000,  0.0000,  0.0000)
  36 Li     1.764467    1.034456    9.367090    ( 0.0000,  0.0000,  0.0000)
  37 Li     0.007452    4.041818    9.359934    ( 0.0000,  0.0000,  0.0000)
  38 Li     5.247660    1.023866    9.360675    ( 0.0000,  0.0000,  0.0000)
  39 Li     3.498715    4.031747    9.318752    ( 0.0000,  0.0000,  0.0000)
  40 Li     3.508387    0.008396   11.420603    ( 0.0000,  0.0000,  0.0000)
  41 Li     1.752111    3.040518   11.344055    ( 0.0000,  0.0000,  0.0000)
  42 Li     7.011739    0.008345   11.235087    ( 0.0000,  0.0000,  0.0000)
  43 Li     5.260374    3.038357   11.292123    ( 0.0000,  0.0000,  0.0000)
  44 Li     0.000890    2.033637   11.418897    ( 0.0000,  0.0000,  0.0000)
  45 Li    -1.749490    5.066306   11.235826    ( 0.0000,  0.0000,  0.0000)
  46 Li     3.505840    2.028001   11.341317    ( 0.0000,  0.0000,  0.0000)
  47 Li     1.748773    5.065030   11.266135    ( 0.0000,  0.0000,  0.0000)
  48 N      1.753084    1.012487    3.439048    ( 0.0000,  0.0000,  0.0000)
  49 N     -0.000296    4.049430    3.439048    ( 0.0000,  0.0000,  0.0000)
  50 N      5.259794    1.012487    3.439048    ( 0.0000,  0.0000,  0.0000)
  51 N      3.506414    4.049430    3.439048    ( 0.0000,  0.0000,  0.0000)
  52 N      1.753031    1.012517    7.360963    ( 0.0000,  0.0000,  0.0000)
  53 N     -0.000349    4.049460    7.360963    ( 0.0000,  0.0000,  0.0000)
  54 N      5.259741    1.012517    7.360963    ( 0.0000,  0.0000,  0.0000)
  55 N      3.506361    4.049460    7.360963    ( 0.0000,  0.0000,  0.0000)
  56 N      1.748693    1.010636   11.336540    ( 0.0000,  0.0000,  0.0000)
  57 N     -0.003548    4.058407   11.318911    ( 0.0000,  0.0000,  0.0000)
  58 N      5.264997    1.014577   11.321056    ( 0.0000,  0.0000,  0.0000)
  59 N      3.507440    4.057007   11.234740    ( 0.0000,  0.0000,  0.0000)
  60 N      1.765396    1.043003   15.330860    ( 0.0000,  0.0000,  0.0000)
  61 N      0.002527    4.066553   15.292214    ( 0.0000,  0.0000,  0.0000)
  62 N      5.260643    1.030321   15.297628    ( 0.0000,  0.0000,  0.0000)
  63 N      3.497601    4.037616   15.097832    ( 0.0000,  0.0000,  0.0000)
  64 Li     3.247241    3.426107   16.844757    ( 0.0000,  0.0000,  0.0000)

Unit cell:
           periodic     x           y           z      points  spacing
  1. axis:    yes    7.013420    0.000000    0.000000    40     0.1518
  2. axis:    yes   -3.506760    6.073886    0.000000    40     0.1518
  3. axis:    yes    0.000000    0.000000   29.936001   160     0.1871

  Lengths:   7.013420   7.013520  29.936001
  Angles:   90.000000  90.000000 120.000000

Effective grid spacing dv^(1/3) = 0.1708

                     log10-error:    total        iterations:
           time      wfs    density  energy       fermi  poisson
iter:   1  17:01:31  -4.44         -234.942003    3
iter:   2  17:02:11  -5.47  -2.96  -234.938413    3
iter:   3  17:02:51  -6.24  -2.68  -234.939240    3
iter:   4  17:03:30  -5.33  -3.12  -234.938683    3
iter:   5  17:04:10  -6.16  -3.38  -234.939521    2
iter:   6  17:04:51  -6.69  -3.74  -234.939411    2
iter:   7  17:05:31  -6.86  -4.07  -234.939226    2
iter:   8  17:06:12  -6.93  -3.80  -234.939357    2
iter:   9  17:06:53  -7.68  -4.40  -234.939388    2

Converged after 9 iterations.

Dipole moment: (-1.537588, 0.291861, -11.357724) |e|*Ang

Energy contributions relative to reference atoms: (reference = -33644.147259)

Kinetic:       +254.290329
Potential:     -188.231614
External:        +0.000000
XC:            -299.677424
Entropy (-ST):   -0.075748
Local:           -1.282805
Free energy:   -234.977262
Extrapolated:  -234.939388

Fermi level: -0.21844

Showing only first 2 kpts
 Kpt  Band  Eigenvalues  Occupancy
  0    62     -0.59347    0.07996
  0    63     -0.00564    0.00112
  0    64      0.00893    0.00084
  0    65      0.19786    0.00002

  1    62     -0.67170    0.15998
  1    63     -0.27673    0.12198
  1    64     -0.10984    0.01637
  1    65      0.38895    0.00000

Forces in eV/Ang:
  0 Li   -0.00006    0.00007   -0.05448
  1 Li   -0.00007    0.00004   -0.05442
  2 Li   -0.00009    0.00006   -0.05443
  3 Li   -0.00008    0.00003   -0.05418
  4 Li   -0.01016   -0.01225   -0.00221
  5 Li   -0.00636    0.01215    0.00426
  6 Li    0.01425   -0.00329    0.00303
  7 Li    0.00431    0.01157    0.00852
  8 Li    0.00234    0.00979    0.00318
  9 Li   -0.00109    0.00662   -0.01971
 10 Li   -0.00128    0.00771    0.00738
 11 Li    0.00496    0.00039    0.00132
 12 Li    0.00561    0.00999    0.00500
 13 Li    0.00655    0.00208    0.00912
 14 Li    0.00547    0.00072   -0.02390
 15 Li    0.00037    0.00229    0.00830
 16 Li    0.00008   -0.00013   -0.04477
 17 Li    0.00000   -0.00006   -0.04450
 18 Li   -0.00006   -0.00014   -0.04536
 19 Li    0.00001   -0.00014   -0.04477
 20 Li   -0.00011    0.00017   -0.04470
 21 Li   -0.00004   -0.00001   -0.04529
 22 Li   -0.00004    0.00011   -0.04447
 23 Li   -0.00011    0.00003   -0.04494
 24 Li    0.00055    0.00096   -0.05491
 25 Li    0.00039   -0.00048   -0.05576
 26 Li   -0.00057    0.00051   -0.05575
 27 Li   -0.00040   -0.00113   -0.06329
 28 Li   -0.00258   -0.00525    0.01482
 29 Li   -0.00834   -0.00013   -0.01848
 30 Li    0.00205    0.00511    0.02662
 31 Li    0.00801    0.00208   -0.00255
 32 Li   -0.00231   -0.00499    0.01085
 33 Li    0.00282    0.00644    0.02329
 34 Li    0.00172   -0.00751   -0.02218
 35 Li   -0.00321    0.00832    0.00647
 36 Li    0.00613    0.01045    0.00351
 37 Li    0.00607   -0.00179    0.00108
 38 Li   -0.00497    0.00494    0.00095
 39 Li   -0.00508   -0.00907   -0.00367
 40 Li    0.00076    0.00405   -0.00247
 41 Li   -0.00150   -0.00072    0.00304
 42 Li    0.00023    0.00430   -0.00420
 43 Li    0.00201   -0.00105    0.00232
 44 Li    0.00228    0.00315   -0.00600
 45 Li    0.00362    0.00243   -0.00511
 46 Li    0.00007   -0.00168   -0.00043
 47 Li   -0.00249    0.00144   -0.00220
 48 N    -0.00057   -0.00051    0.10901
 49 N    -0.00049    0.00045    0.10585
 50 N     0.00018   -0.00015    0.10646
 51 N     0.00005    0.00085    0.09278
 52 N     0.00999    0.01793    0.14561
 53 N     0.00701   -0.00770    0.11821
 54 N    -0.01049    0.00892    0.12196
 55 N    -0.00630   -0.01598   -0.02836
 56 N    -0.00088   -0.00133    0.00621
 57 N    -0.00097    0.00175    0.00017
 58 N     0.00185    0.00088    0.00005
 59 N     0.00046    0.00048    0.00360
 60 N    -0.00086   -0.00398    0.00225
 61 N    -0.01417    0.00521    0.00323
 62 N     0.00936   -0.00606    0.00377
 63 N     0.00647    0.01028   -0.02134
 64 Li   -0.03566   -0.07711   -0.01757

Date: Tue Sep  7 17:07:25 2021