User:   jngwng01@n944032
Date:   Tue Sep  7 09:23:09 2021
Arch:   x86_64
Pid:    24814
Python: 3.8.5
gpaw:   /uls/7/gpaw-20.1.0/lib/python3.8/site-packages/gpaw-20.1.0-py3.8-linux-x86_64.egg/gpaw
_gpaw:  /uls/7/gpaw-20.1.0/lib/python3.8/site-packages/gpaw-20.1.0-py3.8-linux-x86_64.egg/
        _gpaw.cpython-38-x86_64-linux-gnu.so
ase:    /uls/7/gpaw-20.1.0/lib/python3.8/site-packages/ase-3.20.1-py3.8.egg/ase (version 3.20.1)
numpy:  /uls/7/gpaw-20.1.0/lib/python3.8/site-packages/numpy (version 1.19.2)
scipy:  /uls/7/gpaw-20.1.0/lib/python3.8/site-packages/scipy-1.5.2-py3.8-linux-x86_64.egg/scipy (version 1.5.2)
units:  Angstrom and eV
cores: 16
OMP_NUM_THREADS: 1

Input parameters:
  convergence: {density: 0.0001,
                eigenstates: 1e-07}
  kpts: [5 5 1]
  mode: {ecut: 500.0,
         gammacentered: False,
         name: pw}
  occupations: {name: fermi-dirac,
                width: 0.05}
  xc: PBE

System changes: positions, numbers, cell, pbc, initial_charges, initial_magmoms

Initialize ...

Li-setup:
  name: Lithium
  id: 830b4218f175192f93f959cfc0aad614
  Z: 3
  valence: 1
  core: 2
  charge: 0.0
  file: /uls/7/gpaw-20.1.0/setups/gpaw-setups-0.9.20000/Li.PBE.gz
  compensation charges: gauss, rc=0.33, lmax=2
  cutoffs: 1.91(filt), 2.55(core),
  valence states:
                energy  radius
    2s(1.00)    -2.874   1.058
    2p(0.00)    -1.090   1.058
    *s          24.337   1.058

  Using partial waves for Li as LCAO basis

N-setup:
  name: Nitrogen
  id: f7500608b86eaa90eef8b1d9a670dc53
  Z: 7
  valence: 5
  core: 2
  charge: 0.0
  file: /uls/7/gpaw-20.1.0/setups/gpaw-setups-0.9.20000/N.PBE.gz
  compensation charges: gauss, rc=0.18, lmax=2
  cutoffs: 1.11(filt), 0.96(core),
  valence states:
                energy  radius
    2s(2.00)   -18.583   0.603
    2p(3.00)    -7.089   0.529
    *s           8.629   0.603
    *p          20.123   0.529
    *d           0.000   0.577

  Using partial waves for N as LCAO basis

Reference energy: -33644.147259

Spin-paired calculation

Occupation numbers:
  Fermi-Dirac: width=0.0500 eV

Convergence criteria:
  Maximum total energy change: 0.0005 eV / electron
  Maximum integral of absolute density change: 0.0001 electrons
  Maximum integral of absolute eigenstate change: 1e-07 eV^2
  Maximum number of iterations: 333

Symmetries present (total): 1

  ( 1  0  0)
  ( 0  1  0)
  ( 0  0  1)

25 k-points: 5 x 5 x 1 Monkhorst-Pack grid
13 k-points in the irreducible part of the Brillouin zone
       k-points in crystal coordinates                weights
   0:     0.00000000    0.00000000    0.00000000          1/25
   1:     0.00000000    0.20000000    0.00000000          2/25
   2:     0.00000000    0.40000000    0.00000000          2/25
   3:     0.20000000   -0.40000000    0.00000000          2/25
   4:     0.20000000   -0.20000000    0.00000000          2/25
   5:     0.20000000    0.00000000    0.00000000          2/25
   6:     0.20000000    0.20000000    0.00000000          2/25
   7:     0.20000000    0.40000000    0.00000000          2/25
   8:     0.40000000   -0.40000000    0.00000000          2/25
   9:     0.40000000   -0.20000000    0.00000000          2/25
          ...
  12:     0.40000000    0.40000000    0.00000000          2/25

Wave functions: Plane wave expansion
  Cutoff energy: 500.000 eV
  Number of coefficients (min, max): 32263, 32394
  Pulay-stress correction: 0.000000 eV/Ang^3 (de/decut=0.000000)
  Using FFTW library
  ScaLapack parameters: grid=1x1, blocksize=None
  Wavefunction extrapolation:
    Improved wavefunction reuse through dual PAW basis

Eigensolver
   Davidson(niter=2, smin=None, normalize=True)

Densities:
  Coarse grid: 40*40*160 grid
  Fine grid: 80*80*320 grid
  Total Charge: 0.000000

Density mixing:
  Method: separate
  Backend: pulay
  Linear mixing parameter: 0.05
  Mixing with 5 old densities
  Damping of long wave oscillations: 50

Hamiltonian:
  XC and Coulomb potentials evaluated on a 80*80*320 grid
  Using the PBE Exchange-Correlation functional

XC parameters: PBE with 2 nearest neighbor stencil

Total number of cores used: 16
Parallelization over k-points: 8
Domain decomposition: 1 x 1 x 2
                      2 x 2 x 4 (xc only)

Number of atoms: 65
Number of atomic orbitals: 260
Number of bands in calculation: 82
Number of valence electrons: 129
Bands to converge: occupied

... initialized

Initializing position-dependent things.

Density initialized from atomic densities
Creating initial wave functions:
  82 bands from LCAO basis set

                   Li
           Li     Li
              N        N  Li
             Li   Li Li
              LiN   Li LiN
                            Li
           Li   Li Li    Li
              N   Li   N  Li
             Li      Li
              LiN   Li LiN  Li

           Li N Li Li  N Li
                  Li      Li
             Li N    Li  N
              Li    Li Li   Li

[...]

                Li       Li

Positions:
   0 Li     1.753189    1.012426    1.530029    ( 0.0000,  0.0000,  0.0000)
   1 Li    -0.000191    4.049369    1.530029    ( 0.0000,  0.0000,  0.0000)
   2 Li     5.259899    1.012426    1.530029    ( 0.0000,  0.0000,  0.0000)
   3 Li     3.506519    4.049369    1.530029    ( 0.0000,  0.0000,  0.0000)
   4 Li     1.752542    1.016989   13.204025    ( 0.0000,  0.0000,  0.0000)
   5 Li     0.004121    4.050655   13.304116    ( 0.0000,  0.0000,  0.0000)
   6 Li     5.259021    1.011609   13.304020    ( 0.0000,  0.0000,  0.0000)
   7 Li     3.501140    4.048628   13.265566    ( 0.0000,  0.0000,  0.0000)
   8 Li     3.561592   -0.053278   15.394876    ( 0.0000,  0.0000,  0.0000)
   9 Li     1.724466    3.109061   15.083838    ( 0.0000,  0.0000,  0.0000)
  10 Li     6.959948   -0.007052   15.115459    ( 0.0000,  0.0000,  0.0000)
  11 Li     5.296868    3.037845   15.810765    ( 0.0000,  0.0000,  0.0000)
  12 Li    -0.077208    2.048355   15.396168    ( 0.0000,  0.0000,  0.0000)
  13 Li    -1.734386    5.013747   15.109954    ( 0.0000,  0.0000,  0.0000)
  14 Li     3.581120    2.036780   15.076846    ( 0.0000,  0.0000,  0.0000)
  15 Li     1.734604    5.093569   15.820981    ( 0.0000,  0.0000,  0.0000)
  16 Li     3.506465    0.000182    3.465092    ( 0.0000,  0.0000,  0.0000)
  17 Li     1.753085    3.037125    3.465092    ( 0.0000,  0.0000,  0.0000)
  18 Li     7.013175    0.000182    3.465092    ( 0.0000,  0.0000,  0.0000)
  19 Li     5.259795    3.037125    3.465092    ( 0.0000,  0.0000,  0.0000)
  20 Li    -0.000262    2.024791    3.465092    ( 0.0000,  0.0000,  0.0000)
  21 Li    -1.753642    5.061734    3.465092    ( 0.0000,  0.0000,  0.0000)
  22 Li     3.506448    2.024791    3.465092    ( 0.0000,  0.0000,  0.0000)
  23 Li     1.753068    5.061734    3.465092    ( 0.0000,  0.0000,  0.0000)
  24 Li     1.753084    1.012487    5.431887    ( 0.0000,  0.0000,  0.0000)
  25 Li    -0.000296    4.049430    5.431887    ( 0.0000,  0.0000,  0.0000)
  26 Li     5.259794    1.012487    5.431887    ( 0.0000,  0.0000,  0.0000)
  27 Li     3.506414    4.049430    5.431887    ( 0.0000,  0.0000,  0.0000)
  28 Li     3.506429    0.000182    7.378027    ( 0.0000,  0.0000,  0.0000)
  29 Li     1.753049    3.037125    7.378027    ( 0.0000,  0.0000,  0.0000)
  30 Li     7.013139    0.000182    7.378027    ( 0.0000,  0.0000,  0.0000)
  31 Li     5.259759    3.037125    7.378027    ( 0.0000,  0.0000,  0.0000)
  32 Li    -0.000297    2.024791    7.378027    ( 0.0000,  0.0000,  0.0000)
  33 Li    -1.753677    5.061734    7.378027    ( 0.0000,  0.0000,  0.0000)
  34 Li     3.506413    2.024791    7.378027    ( 0.0000,  0.0000,  0.0000)
  35 Li     1.753033    5.061734    7.378027    ( 0.0000,  0.0000,  0.0000)
  36 Li     1.753146    1.013783    9.324872    ( 0.0000,  0.0000,  0.0000)
  37 Li     0.000428    4.049529    9.353219    ( 0.0000,  0.0000,  0.0000)
  38 Li     5.259288    1.012259    9.353215    ( 0.0000,  0.0000,  0.0000)
  39 Li     3.504866    4.049339    9.342685    ( 0.0000,  0.0000,  0.0000)
  40 Li     3.507823   -0.001066   11.306109    ( 0.0000,  0.0000,  0.0000)
  41 Li     1.751253    3.040010   11.265900    ( 0.0000,  0.0000,  0.0000)
  42 Li     7.010606    0.000567   11.267662    ( 0.0000,  0.0000,  0.0000)
  43 Li     5.260692    3.037822   11.361577    ( 0.0000,  0.0000,  0.0000)
  44 Li    -0.004062    2.026534   11.306031    ( 0.0000,  0.0000,  0.0000)
  45 Li    -1.753504    5.060364   11.268023    ( 0.0000,  0.0000,  0.0000)
  46 Li     3.508552    2.025621   11.266238    ( 0.0000,  0.0000,  0.0000)
  47 Li     1.751531    5.063857   11.361008    ( 0.0000,  0.0000,  0.0000)
  48 N      1.753084    1.012487    3.439048    ( 0.0000,  0.0000,  0.0000)
  49 N     -0.000296    4.049430    3.439048    ( 0.0000,  0.0000,  0.0000)
  50 N      5.259794    1.012487    3.439048    ( 0.0000,  0.0000,  0.0000)
  51 N      3.506414    4.049430    3.439048    ( 0.0000,  0.0000,  0.0000)
  52 N      1.753031    1.012517    7.360963    ( 0.0000,  0.0000,  0.0000)
  53 N     -0.000349    4.049460    7.360963    ( 0.0000,  0.0000,  0.0000)
  54 N      5.259741    1.012517    7.360963    ( 0.0000,  0.0000,  0.0000)
  55 N      3.506361    4.049460    7.360963    ( 0.0000,  0.0000,  0.0000)
  56 N      1.752371    1.013281   11.246059    ( 0.0000,  0.0000,  0.0000)
  57 N     -0.000913    4.050249   11.307563    ( 0.0000,  0.0000,  0.0000)
  58 N      5.259259    1.013071   11.307545    ( 0.0000,  0.0000,  0.0000)
  59 N      3.505554    4.050175   11.283695    ( 0.0000,  0.0000,  0.0000)
  60 N      1.741750    0.997300   15.099596    ( 0.0000,  0.0000,  0.0000)
  61 N     -0.009141    4.058603   15.287053    ( 0.0000,  0.0000,  0.0000)
  62 N      5.268531    1.011560   15.286818    ( 0.0000,  0.0000,  0.0000)
  63 N      3.509394    4.056517   15.224448    ( 0.0000,  0.0000,  0.0000)
  64 Li     2.252203    1.846643   17.105602    ( 0.0000,  0.0000,  0.0000)

Unit cell:
           periodic     x           y           z      points  spacing
  1. axis:    yes    7.013420    0.000000    0.000000    40     0.1518
  2. axis:    yes   -3.506760    6.073886    0.000000    40     0.1518
  3. axis:    yes    0.000000    0.000000   29.936001   160     0.1871

  Lengths:   7.013420   7.013520  29.936001
  Angles:   90.000000  90.000000 120.000000

Effective grid spacing dv^(1/3) = 0.1708

                     log10-error:    total        iterations:
           time      wfs    density  energy       fermi  poisson
iter:   1  09:24:44                -275.005587    4
iter:   2  09:25:24  -0.99  -0.51  -262.536325    5
iter:   3  09:26:04  -0.41  -0.57  -279.086315    37
iter:   4  09:26:44  -1.86  -0.52  -251.416140    32
iter:   5  09:27:24  -2.71  -0.72  -249.051481    4
iter:   6  09:28:04  -1.48  -0.72  -244.913731    3
iter:   7  09:28:44  -1.45  -0.79  -239.860465    33
iter:   8  09:29:23  -1.51  -0.89  -238.124214    6
iter:   9  09:30:03  -2.21  -0.97  -237.628538    35
iter:  10  09:30:43  -1.73  -0.95  -237.516250    33
iter:  11  09:31:23  -1.61  -0.93  -236.838590    35
iter:  12  09:32:04  -3.31  -0.97  -236.289471    4
iter:  13  09:32:43  -1.88  -1.01  -248.644175    36
iter:  14  09:33:23  -2.11  -0.89  -240.536148    36
[...]

[...]

                   Li
           Li     Li
              N        N  Li
             Li   Li Li
              Li N  Li LiN  Li

           Li N Li Li    Li
                  Li   N  Li
             Li      Li  N
              LiN   Li Li   Li

           Li N Li Li  N Li
                  Li      Li
             Li N    Li  N
              Li    Li Li   Li
           Li      Li
              N Li     N Li
             Li   Li Li   Li
                N        N
              Li    Li Li   Li

[...]

                   Li
           Li     Li
              N        N  Li
             Li   Li  Li
              Li N  Li LiN  Li

           Li N Li Li    Li
                  Li   N  Li
             Li      Li  N
              LiN   Li Li   Li

[...]

                   Li
           Li N   Li      Li
                       N
             Li  NLi  Li N
              Li    Li Li   Li

[...]

                   Li
           Li N   Li      Li
                       N
             Li  NLi  Li N
              Li    Li Li   Li

[...]

                   Li
           Li N   Li      Li
                       N
             Li N Li  Li N
              Li    Li Li   Li

[...]

                   Li
           Li N   Li      Li
                       N
             Li N Li  Li N
              Li    Li Li   Li

[...]

                   Li
           Li N   Li      Li
                       N
             Li   Li  Li N
              LiN   Li Li   Li

[...]

                   Li
           Li N   Li      Li
                       N
             Li   Li  Li N
              LiN   Li Li   Li

[...]

                   Li
           Li N   Li      Li
             Li        N
                N Li  Li N
              Li    Li Li   Li

[...]

                   Li
           Li N   Li   N  Li
             Li
                N Li  Li N
              Li    Li Li   Li

[...]

           Li N Li Li  N Li
                  Li      Li
             Li N    Li  N
              Li    Li Li   Li
           Li      Li
              N Li     N Li
             Li   Li Li   Li
                N        N
              Li    Li Li   Li

[...]

           Li N Li Li  N Li
                  Li      Li
             Li N    Li  N
              Li    Li Li   Li
           Li      Li
              N Li     N Li
             Li   Li Li   Li
              LiN      LiN
                    Li      Li

[...]

           Li N Li Li  N Li
                  Li      Li
             Li N    Li  N
              Li    Li Li   Li
           Li      Li
              N Li     N Li
             Li   Li Li   Li
              LiN      LiN
                    Li      Li

[...]

           Li N Li Li  N Li
                  Li      Li
             Li N    Li  N
              Li    Li Li   Li
           Li      Li
              N Li     N Li
                  Li      Li
             Li N    Li  N
              Li    Li Li   Li
           Li      Li
              N Li     N Li
             Li   Li Li   Li
              LiN      LiN
                    Li      Li
                Li       Li

[...]

                   Li
           Li N   Li   N  Li
             Li
                N Li  Li N
              Li    Li Li   Li

           Li N Li Li  N Li
                  Li      Li
             Li N    Li  N
              Li    Li Li   Li
           Li      Li
              N Li     N Li
                  Li      Li
             Li N    Li  N
              Li    Li Li   Li
           Li      Li
              N Li     N Li
             Li   Li Li   Li
              LiN      LiN
                    Li      Li
                Li       Li

[...]

                   Li
           Li N   Li   N  Li
             Li
                N Li  Li N
              Li    Li Li   Li
                   Li
           Li N Li     N Li
                  Li      Li
             Li N    Li  N
              Li    Li Li   Li
           Li      Li
              N Li     N Li
             Li   Li Li   Li
                N        N
              Li    Li Li   Li
           Li      Li
              N Li     N Li
             Li   Li Li   Li
              LiN      LiN
                    Li      Li
                Li       Li

[...]

                   Li
           Li N   Li   N  Li
             Li
                N Li  Li N
              Li    Li Li   Li
                   Li
           Li N Li     N Li
             Li   Li      Li
                N    Li  N
              Li    Li Li   Li
           Li      Li
              N Li     N Li
             Li   Li Li   Li
                N        N
              Li    Li Li   Li
           Li      Li
              N Li     N Li
             Li   Li Li   Li
              LiN      LiN
                    Li      Li
                Li       Li

[...]

           Li      Li
              N   Li   N  Li
             Li   Li
              LiN     LiiN
                    Li      Li
           Li      Li    Li
              N LiLi   N  Li
             Li      Li
              LiN   Li LiN
                            Li
           Li   Li Li    Li
              N   Li   N  Li
             Li      Li
              LiN   Li LiN  Li

[...]

           Li      Li
              N    Li N   Li
             Li   Li
              LiN     LiiN
                    Li      Li
           Li      Li    Li
              N LiLi   N  Li
             Li      Li
              LiN   Li LiN
                            Li
           Li   Li Li    Li
              N   Li   N  Li
             Li      Li
              LiN   Li LiN  Li

[...]

                   Li
           Li
              N    Li N   Li
             Li   Li
              LiN     LiiN
                    Li      Li
           Li      Li    Li
              N LiLi   N  Li
             Li      Li
              LiN   Li LiN
                            Li
           Li   Li Li    Li
              N   Li   N  Li
             Li      Li
              LiN   Li LiN  Li

[...]

                   Li
          Li
              N    Li N   Li
             Li   Li
              LiN     LiiN
                    Li      Li
           Li      Li    Li
              N LiLi   N  Li
             Li      Li
              LiN   Li LiN
                            Li
           Li   Li Li    Li
              N   Li   N  Li
             Li      Li
              LiN   Li LiN  Li

[...]

                   Li
          Li
              N    Li N   Li
             Li   Li
              LiN     LiiN
                    Li      Li
           Li      Li    Li
              N LiLi   N  Li
             Li      Li
              LiN      LiN
                    Li      Li
           Li   Li Li    Li
              N   Li   N  Li
             Li      Li
              LiN   Li LiN  Li

[...]

System changes: positions

Initializing position-dependent things.

Density initialized from wave functions

                   Li
          Li
              N   Li  N   Li
             Li   Li
              LiN     LiiN
                    Li      Li
           Li      Li    Li
              N LiLi   N  Li
             Li      Li
              LiN      LiN
                    Li      Li
           Li   Li Li    Li
              N   Li   N  Li
             Li      Li
              LiN   Li LiN  Li

           Li N Li Li  N Li
                  Li      Li
             Li N    Li  N
              Li    Li Li   Li

                Li       Li

Positions:
   0 Li     1.753189    1.012426    1.530029    ( 0.0000,  0.0000,  0.0000)
   1 Li    -0.000191    4.049369    1.530029    ( 0.0000,  0.0000,  0.0000)
   2 Li     5.259899    1.012426    1.530029    ( 0.0000,  0.0000,  0.0000)
   3 Li     3.506519    4.049369    1.530029    ( 0.0000,  0.0000,  0.0000)
   4 Li     1.678984    0.890462   13.183851    ( 0.0000,  0.0000,  0.0000)
   5 Li    -0.168459    4.096038   13.310295    ( 0.0000,  0.0000,  0.0000)
   6 Li     5.386903    0.892901   13.309461    ( 0.0000,  0.0000,  0.0000)
   7 Li     3.612845    4.238699   13.363744    ( 0.0000,  0.0000,  0.0000)
   8 Li     3.551241   -0.017036   15.163847    ( 0.0000,  0.0000,  0.0000)
   9 Li     1.717916    3.197987   14.746054    ( 0.0000,  0.0000,  0.0000)
  10 Li     6.955350   -0.033274   15.400231    ( 0.0000,  0.0000,  0.0000)
  11 Li     5.196120    2.925395   16.059303    ( 0.0000,  0.0000,  0.0000)
  12 Li    -0.037220    2.055385   15.173580    ( 0.0000,  0.0000,  0.0000)
  13 Li    -1.754896    4.998930   15.402508    ( 0.0000,  0.0000,  0.0000)
  14 Li     3.662125    2.076697   14.738893    ( 0.0000,  0.0000,  0.0000)
  15 Li     1.683629    4.952299   16.063858    ( 0.0000,  0.0000,  0.0000)
  16 Li     3.506465    0.000182    3.465092    ( 0.0000,  0.0000,  0.0000)
  17 Li     1.753085    3.037125    3.465092    ( 0.0000,  0.0000,  0.0000)
  18 Li     7.013175    0.000182    3.465092    ( 0.0000,  0.0000,  0.0000)
  19 Li     5.259795    3.037125    3.465092    ( 0.0000,  0.0000,  0.0000)
  20 Li    -0.000262    2.024791    3.465092    ( 0.0000,  0.0000,  0.0000)
  21 Li    -1.753642    5.061734    3.465092    ( 0.0000,  0.0000,  0.0000)
  22 Li     3.506448    2.024791    3.465092    ( 0.0000,  0.0000,  0.0000)
  23 Li     1.753068    5.061734    3.465092    ( 0.0000,  0.0000,  0.0000)
  24 Li     1.753084    1.012487    5.431887    ( 0.0000,  0.0000,  0.0000)
  25 Li    -0.000296    4.049430    5.431887    ( 0.0000,  0.0000,  0.0000)
  26 Li     5.259794    1.012487    5.431887    ( 0.0000,  0.0000,  0.0000)
  27 Li     3.506414    4.049430    5.431887    ( 0.0000,  0.0000,  0.0000)
  28 Li     3.506429    0.000182    7.378027    ( 0.0000,  0.0000,  0.0000)
  29 Li     1.753049    3.037125    7.378027    ( 0.0000,  0.0000,  0.0000)
  30 Li     7.013139    0.000182    7.378027    ( 0.0000,  0.0000,  0.0000)
  31 Li     5.259759    3.037125    7.378027    ( 0.0000,  0.0000,  0.0000)
  32 Li    -0.000297    2.024791    7.378027    ( 0.0000,  0.0000,  0.0000)
  33 Li    -1.753677    5.061734    7.378027    ( 0.0000,  0.0000,  0.0000)
  34 Li     3.506413    2.024791    7.378027    ( 0.0000,  0.0000,  0.0000)
  35 Li     1.753033    5.061734    7.378027    ( 0.0000,  0.0000,  0.0000)
  36 Li     1.764787    1.032946    9.316568    ( 0.0000,  0.0000,  0.0000)
  37 Li     0.013424    4.040495    9.358291    ( 0.0000,  0.0000,  0.0000)
  38 Li     5.243157    1.018901    9.357874    ( 0.0000,  0.0000,  0.0000)
  39 Li     3.488478    4.020329    9.372403    ( 0.0000,  0.0000,  0.0000)
  40 Li     3.506504   -0.002485   11.284562    ( 0.0000,  0.0000,  0.0000)
  41 Li     1.748163    3.032032   11.368536    ( 0.0000,  0.0000,  0.0000)
  42 Li     7.004490   -0.004479   11.216575    ( 0.0000,  0.0000,  0.0000)
  43 Li     5.252441    3.024663   11.435468    ( 0.0000,  0.0000,  0.0000)
  44 Li    -0.005234    2.025564   11.270019    ( 0.0000,  0.0000,  0.0000)
  45 Li    -1.755116    5.052004   11.209467    ( 0.0000,  0.0000,  0.0000)
  46 Li     3.502835    2.019891   11.354064    ( 0.0000,  0.0000,  0.0000)
  47 Li     1.743922    5.050303   11.424303    ( 0.0000,  0.0000,  0.0000)
  48 N      1.753084    1.012487    3.439048    ( 0.0000,  0.0000,  0.0000)
  49 N     -0.000296    4.049430    3.439048    ( 0.0000,  0.0000,  0.0000)
  50 N      5.259794    1.012487    3.439048    ( 0.0000,  0.0000,  0.0000)
  51 N      3.506414    4.049430    3.439048    ( 0.0000,  0.0000,  0.0000)
  52 N      1.753031    1.012517    7.360963    ( 0.0000,  0.0000,  0.0000)
  53 N     -0.000349    4.049460    7.360963    ( 0.0000,  0.0000,  0.0000)
  54 N      5.259741    1.012517    7.360963    ( 0.0000,  0.0000,  0.0000)
  55 N      3.506361    4.049460    7.360963    ( 0.0000,  0.0000,  0.0000)
  56 N      1.746337    1.003483   11.230862    ( 0.0000,  0.0000,  0.0000)
  57 N     -0.013293    4.046326   11.317012    ( 0.0000,  0.0000,  0.0000)
  58 N      5.261710    1.001007   11.316125    ( 0.0000,  0.0000,  0.0000)
  59 N      3.507476    4.053828   11.356011    ( 0.0000,  0.0000,  0.0000)
  60 N      1.768111    1.040011   15.082851    ( 0.0000,  0.0000,  0.0000)
  61 N     -0.022115    4.032173   15.268481    ( 0.0000,  0.0000,  0.0000)
  62 N      5.252875    0.987015   15.268057    ( 0.0000,  0.0000,  0.0000)
  63 N      3.453720    3.960086   15.368950    ( 0.0000,  0.0000,  0.0000)
  64 Li     2.340596    2.011004   16.645548    ( 0.0000,  0.0000,  0.0000)

Unit cell:
           periodic     x           y           z      points  spacing
  1. axis:    yes    7.013420    0.000000    0.000000    40     0.1518
  2. axis:    yes   -3.506760    6.073886    0.000000    40     0.1518
  3. axis:    yes    0.000000    0.000000   29.936001   160     0.1871

  Lengths:   7.013420   7.013520  29.936001
  Angles:   90.000000  90.000000 120.000000

Effective grid spacing dv^(1/3) = 0.1708

                     log10-error:    total        iterations:
           time      wfs    density  energy       fermi  poisson
iter:   1  17:01:32  -4.34         -235.028747    2
iter:   2  17:02:12  -4.98  -2.78  -235.027422    3
iter:   3  17:02:51  -5.46  -2.41  -235.023607    3
iter:   4  17:03:31  -5.93  -3.31  -235.022231    2
iter:   5  17:04:11  -6.18  -3.34  -235.022879    2
iter:   6  17:04:52  -6.42  -3.75  -235.023023    2
iter:   7  17:05:32  -6.71  -3.96  -235.022703    2
iter:   8  17:06:13  -7.25  -3.80  -235.022789    2
iter:   9  17:06:54  -7.21  -4.04  -235.022852    2

Converged after 9 iterations.

Dipole moment: (-0.536637, 1.284002, -11.410522) |e|*Ang

Energy contributions relative to reference atoms: (reference = -33644.147259)

Kinetic:       +252.781634
Potential:     -186.975839
External:        +0.000000
XC:            -299.507269
Entropy (-ST):   -0.075655
Local:           -1.283550
Free energy:   -235.060679
Extrapolated:  -235.022852

Fermi level: -0.26175

Showing only first 2 kpts
 Kpt  Band  Eigenvalues  Occupancy
  0    62     -0.66310    0.07997
  0    63     -0.06001    0.00139
  0    64     -0.03064    0.00078
  0    65      0.13162    0.00003

  1    62     -0.67921    0.15996
  1    63     -0.31418    0.11848
  1    64     -0.15325    0.01640
  1    65      0.32912    0.00000

Forces in eV/Ang:
  0 Li   -0.00006    0.00007   -0.05705
  1 Li   -0.00006    0.00005   -0.05721
  2 Li   -0.00008    0.00006   -0.05721
  3 Li   -0.00008    0.00003   -0.05735
  4 Li   -0.01142   -0.02021    0.03350
  5 Li   -0.01992    0.00380   -0.00326
  6 Li    0.01299   -0.01585   -0.00421
  7 Li    0.00937    0.01753    0.00330
  8 Li    0.00488   -0.00797    0.01046
  9 Li   -0.00654    0.00095   -0.04598
 10 Li   -0.01548    0.00487    0.00875
 11 Li   -0.00733   -0.01809   -0.00134
 12 Li   -0.00913    0.00027    0.00992
 13 Li    0.01138   -0.01083    0.01038
 14 Li    0.00415   -0.00428   -0.04718
 15 Li   -0.01226   -0.01613   -0.00066
 16 Li    0.00005   -0.00010   -0.04711
 17 Li   -0.00017   -0.00022   -0.04677
 18 Li   -0.00003    0.00011   -0.04787
 19 Li    0.00018   -0.00029   -0.04718
 20 Li   -0.00008    0.00012   -0.04714
 21 Li    0.00015    0.00015   -0.04786
 22 Li   -0.00007   -0.00013   -0.04677
 23 Li   -0.00031    0.00013   -0.04716
 24 Li    0.00076    0.00127   -0.06999
 25 Li    0.00076   -0.00032   -0.06183
 26 Li   -0.00072    0.00043   -0.06191
 27 Li   -0.00069   -0.00113   -0.06056
 28 Li    0.00146   -0.00983   -0.00116
 29 Li   -0.00533    0.00722   -0.02948
 30 Li   -0.00284   -0.00540    0.02911
 31 Li    0.00413    0.00589    0.01199
 32 Li   -0.00989   -0.00300   -0.00008
 33 Li   -0.00389   -0.00505    0.02832
 34 Li    0.00853   -0.00020   -0.03040
 35 Li    0.00281    0.00670    0.00970
 36 Li    0.01002    0.01683   -0.00611
 37 Li    0.00945   -0.00733    0.00582
 38 Li   -0.01147    0.00437    0.00523
 39 Li   -0.01043   -0.01795    0.01355
 40 Li    0.00548   -0.00281   -0.00142
 41 Li   -0.00056    0.00449    0.01046
 42 Li   -0.00869   -0.00666   -0.00844
 43 Li   -0.00301   -0.00399   -0.00304
 44 Li   -0.00548    0.00374   -0.00746
 45 Li   -0.00126   -0.01127   -0.01231
 46 Li    0.00440    0.00188    0.00301
 47 Li   -0.00193   -0.00450   -0.00840
 48 N    -0.00066   -0.00059    0.10647
 49 N    -0.00064    0.00049    0.11443
 50 N     0.00033   -0.00002    0.11432
 51 N     0.00048    0.00132    0.12058
 52 N     0.01093    0.01834   -0.02795
 53 N     0.01329   -0.00697    0.12173
 54 N    -0.01376    0.00701    0.12042
 55 N    -0.01427   -0.02383    0.17986
 56 N    -0.00116   -0.00215   -0.00630
 57 N    -0.00382    0.00060    0.00120
 58 N     0.00247   -0.00279    0.00051
 59 N     0.00271    0.00453    0.01595
 60 N    -0.01243   -0.02011   -0.03235
 61 N    -0.01619    0.00209    0.00519
 62 N     0.01073   -0.01326    0.00489
 63 N     0.00242    0.00399    0.01244
 64 Li    0.07288    0.12666   -0.01968

Date: Tue Sep  7 17:07:25 2021