User:   jngwng01@n944027
Date:   Tue Sep  7 09:23:09 2021
Arch:   x86_64
Pid:    2070
Python: 3.8.5
gpaw:   /uls/7/gpaw-20.1.0/lib/python3.8/site-packages/gpaw-20.1.0-py3.8-linux-x86_64.egg/gpaw
_gpaw:  /uls/7/gpaw-20.1.0/lib/python3.8/site-packages/gpaw-20.1.0-py3.8-linux-x86_64.egg/
        _gpaw.cpython-38-x86_64-linux-gnu.so
ase:    /uls/7/gpaw-20.1.0/lib/python3.8/site-packages/ase-3.20.1-py3.8.egg/ase (version 3.20.1)
numpy:  /uls/7/gpaw-20.1.0/lib/python3.8/site-packages/numpy (version 1.19.2)
scipy:  /uls/7/gpaw-20.1.0/lib/python3.8/site-packages/scipy-1.5.2-py3.8-linux-x86_64.egg/scipy (version 1.5.2)
units:  Angstrom and eV
cores: 16
OMP_NUM_THREADS: 1

Input parameters:
  convergence: {density: 0.0001,
                eigenstates: 1e-07}
  kpts: [5 5 1]
  mode: {ecut: 500.0,
         gammacentered: False,
         name: pw}
  occupations: {name: fermi-dirac,
                width: 0.05}
  xc: PBE

System changes: positions, numbers, cell, pbc, initial_charges, initial_magmoms

Initialize ...

Li-setup:
  name: Lithium
  id: 830b4218f175192f93f959cfc0aad614
  Z: 3
  valence: 1
  core: 2
  charge: 0.0
  file: /uls/7/gpaw-20.1.0/setups/gpaw-setups-0.9.20000/Li.PBE.gz
  compensation charges: gauss, rc=0.33, lmax=2
  cutoffs: 1.91(filt), 2.55(core),
  valence states:
                energy  radius
    2s(1.00)    -2.874   1.058
    2p(0.00)    -1.090   1.058
    *s          24.337   1.058

  Using partial waves for Li as LCAO basis

N-setup:
  name: Nitrogen
  id: f7500608b86eaa90eef8b1d9a670dc53
  Z: 7
  valence: 5
  core: 2
  charge: 0.0
  file: /uls/7/gpaw-20.1.0/setups/gpaw-setups-0.9.20000/N.PBE.gz
  compensation charges: gauss, rc=0.18, lmax=2
  cutoffs: 1.11(filt), 0.96(core),
  valence states:
                energy  radius
    2s(2.00)   -18.583   0.603
    2p(3.00)    -7.089   0.529
    *s           8.629   0.603
    *p          20.123   0.529
    *d           0.000   0.577

  Using partial waves for N as LCAO basis

Reference energy: -33644.147259

Spin-paired calculation

Occupation numbers:
  Fermi-Dirac: width=0.0500 eV

Convergence criteria:
  Maximum total energy change: 0.0005 eV / electron
  Maximum integral of absolute density change: 0.0001 electrons
  Maximum integral of absolute eigenstate change: 1e-07 eV^2
  Maximum number of iterations: 333

Symmetries present (total): 1

  ( 1  0  0)
  ( 0  1  0)
  ( 0  0  1)

25 k-points: 5 x 5 x 1 Monkhorst-Pack grid
13 k-points in the irreducible part of the Brillouin zone
       k-points in crystal coordinates                weights
   0:     0.00000000    0.00000000    0.00000000          1/25
   1:     0.00000000    0.20000000    0.00000000          2/25
   2:     0.00000000    0.40000000    0.00000000          2/25
   3:     0.20000000   -0.40000000    0.00000000          2/25
   4:     0.20000000   -0.20000000    0.00000000          2/25
   5:     0.20000000    0.00000000    0.00000000          2/25
   6:     0.20000000    0.20000000    0.00000000          2/25
   7:     0.20000000    0.40000000    0.00000000          2/25
   8:     0.40000000   -0.40000000    0.00000000          2/25
   9:     0.40000000   -0.20000000    0.00000000          2/25
          ...
  12:     0.40000000    0.40000000    0.00000000          2/25

Wave functions: Plane wave expansion
  Cutoff energy: 500.000 eV
  Number of coefficients (min, max): 32263, 32394
  Pulay-stress correction: 0.000000 eV/Ang^3 (de/decut=0.000000)
  Using FFTW library
  ScaLapack parameters: grid=1x1, blocksize=None
  Wavefunction extrapolation:
    Improved wavefunction reuse through dual PAW basis

Eigensolver
   Davidson(niter=2, smin=None, normalize=True)

Densities:
  Coarse grid: 40*40*160 grid
  Fine grid: 80*80*320 grid
  Total Charge: 0.000000

Density mixing:
  Method: separate
  Backend: pulay
  Linear mixing parameter: 0.05
  Mixing with 5 old densities
  Damping of long wave oscillations: 50

Hamiltonian:
  XC and Coulomb potentials evaluated on a 80*80*320 grid
  Using the PBE Exchange-Correlation functional

XC parameters: PBE with 2 nearest neighbor stencil

Total number of cores used: 16
Parallelization over k-points: 8
Domain decomposition: 1 x 1 x 2
                      2 x 2 x 4 (xc only)

Number of atoms: 65
Number of atomic orbitals: 260
Number of bands in calculation: 82
Number of valence electrons: 129
Bands to converge: occupied

... initialized

Initializing position-dependent things.

Density initialized from atomic densities
Creating initial wave functions:
  82 bands from LCAO basis set

                     Li
           Li      Li
             Li        N  Li
                  Li Li
              LiN   Li LiN
                            Li
           Li   Li Li    Li
              N   Li   N  Li
             Li      Li
              LiN   Li LiN  Li

           Li N Li Li  N Li
                  Li      Li
             Li N    Li  N
              Li    Li Li   Li

[...]

                Li       Li

Positions:
   0 Li     1.753189    1.012426    1.530029    ( 0.0000,  0.0000,  0.0000)
   1 Li    -0.000191    4.049369    1.530029    ( 0.0000,  0.0000,  0.0000)
   2 Li     5.259899    1.012426    1.530029    ( 0.0000,  0.0000,  0.0000)
   3 Li     3.506519    4.049369    1.530029    ( 0.0000,  0.0000,  0.0000)
   4 Li     1.748834    1.015586   13.263996    ( 0.0000,  0.0000,  0.0000)
   5 Li     0.006509    4.051966   13.303827    ( 0.0000,  0.0000,  0.0000)
   6 Li     5.261047    1.005267   13.303692    ( 0.0000,  0.0000,  0.0000)
   7 Li     3.498026    4.052564   13.206879    ( 0.0000,  0.0000,  0.0000)
   8 Li     3.522238   -0.028892   15.814856    ( 0.0000,  0.0000,  0.0000)
   9 Li     1.677289    3.028318   15.083456    ( 0.0000,  0.0000,  0.0000)
  10 Li     6.991638    0.046279   15.123005    ( 0.0000,  0.0000,  0.0000)
  11 Li     5.336118    3.016143   15.382727    ( 0.0000,  0.0000,  0.0000)
  12 Li    -0.040356    2.028745   15.815219    ( 0.0000,  0.0000,  0.0000)
  13 Li    -1.703137    5.068960   15.110052    ( 0.0000,  0.0000,  0.0000)
  14 Li     3.533404    1.953023   15.067387    ( 0.0000,  0.0000,  0.0000)
  15 Li     1.698520    5.114901   15.409180    ( 0.0000,  0.0000,  0.0000)
  16 Li     3.506465    0.000182    3.465092    ( 0.0000,  0.0000,  0.0000)
  17 Li     1.753085    3.037125    3.465092    ( 0.0000,  0.0000,  0.0000)
  18 Li     7.013175    0.000182    3.465092    ( 0.0000,  0.0000,  0.0000)
  19 Li     5.259795    3.037125    3.465092    ( 0.0000,  0.0000,  0.0000)
  20 Li    -0.000262    2.024791    3.465092    ( 0.0000,  0.0000,  0.0000)
  21 Li    -1.753642    5.061734    3.465092    ( 0.0000,  0.0000,  0.0000)
  22 Li     3.506448    2.024791    3.465092    ( 0.0000,  0.0000,  0.0000)
  23 Li     1.753068    5.061734    3.465092    ( 0.0000,  0.0000,  0.0000)
  24 Li     1.753084    1.012487    5.431887    ( 0.0000,  0.0000,  0.0000)
  25 Li    -0.000296    4.049430    5.431887    ( 0.0000,  0.0000,  0.0000)
  26 Li     5.259794    1.012487    5.431887    ( 0.0000,  0.0000,  0.0000)
  27 Li     3.506414    4.049430    5.431887    ( 0.0000,  0.0000,  0.0000)
  28 Li     3.506429    0.000182    7.378027    ( 0.0000,  0.0000,  0.0000)
  29 Li     1.753049    3.037125    7.378027    ( 0.0000,  0.0000,  0.0000)
  30 Li     7.013139    0.000182    7.378027    ( 0.0000,  0.0000,  0.0000)
  31 Li     5.259759    3.037125    7.378027    ( 0.0000,  0.0000,  0.0000)
  32 Li    -0.000297    2.024791    7.378027    ( 0.0000,  0.0000,  0.0000)
  33 Li    -1.753677    5.061734    7.378027    ( 0.0000,  0.0000,  0.0000)
  34 Li     3.506413    2.024791    7.378027    ( 0.0000,  0.0000,  0.0000)
  35 Li     1.753033    5.061734    7.378027    ( 0.0000,  0.0000,  0.0000)
  36 Li     1.752539    1.013407    9.341359    ( 0.0000,  0.0000,  0.0000)
  37 Li     0.001143    4.049807    9.352938    ( 0.0000,  0.0000,  0.0000)
  38 Li     5.259840    1.011254    9.352945    ( 0.0000,  0.0000,  0.0000)
  39 Li     3.503843    4.050383    9.327244    ( 0.0000,  0.0000,  0.0000)
  40 Li     3.505787   -0.000068   11.362738    ( 0.0000,  0.0000,  0.0000)
  41 Li     1.749502    3.037101   11.266123    ( 0.0000,  0.0000,  0.0000)
  42 Li     7.011833    0.003123   11.267314    ( 0.0000,  0.0000,  0.0000)
  43 Li     5.261769    3.036702   11.306262    ( 0.0000,  0.0000,  0.0000)
  44 Li    -0.003212    2.025871   11.362745    ( 0.0000,  0.0000,  0.0000)
  45 Li    -1.752168    5.062541   11.268042    ( 0.0000,  0.0000,  0.0000)
  46 Li     3.506915    2.022967   11.266889    ( 0.0000,  0.0000,  0.0000)
  47 Li     1.749499    5.064529   11.304859    ( 0.0000,  0.0000,  0.0000)
  48 N      1.753084    1.012487    3.439048    ( 0.0000,  0.0000,  0.0000)
  49 N     -0.000296    4.049430    3.439048    ( 0.0000,  0.0000,  0.0000)
  50 N      5.259794    1.012487    3.439048    ( 0.0000,  0.0000,  0.0000)
  51 N      3.506414    4.049430    3.439048    ( 0.0000,  0.0000,  0.0000)
  52 N      1.753031    1.012517    7.360963    ( 0.0000,  0.0000,  0.0000)
  53 N     -0.000349    4.049460    7.360963    ( 0.0000,  0.0000,  0.0000)
  54 N      5.259741    1.012517    7.360963    ( 0.0000,  0.0000,  0.0000)
  55 N      3.506361    4.049460    7.360963    ( 0.0000,  0.0000,  0.0000)
  56 N      1.751875    1.013047   11.283100    ( 0.0000,  0.0000,  0.0000)
  57 N     -0.001178    4.050249   11.308199    ( 0.0000,  0.0000,  0.0000)
  58 N      5.259089    1.012716   11.308183    ( 0.0000,  0.0000,  0.0000)
  59 N      3.505109    4.050353   11.249757    ( 0.0000,  0.0000,  0.0000)
  60 N      1.746808    1.008236   15.221611    ( 0.0000,  0.0000,  0.0000)
  61 N     -0.013379    4.054705   15.285779    ( 0.0000,  0.0000,  0.0000)
  62 N      5.264566    1.007770   15.285497    ( 0.0000,  0.0000,  0.0000)
  63 N      3.515006    4.066241   15.103192    ( 0.0000,  0.0000,  0.0000)
  64 Li     3.037755    3.161844   17.104284    ( 0.0000,  0.0000,  0.0000)

Unit cell:
           periodic     x           y           z      points  spacing
  1. axis:    yes    7.013420    0.000000    0.000000    40     0.1518
  2. axis:    yes   -3.506760    6.073886    0.000000    40     0.1518
  3. axis:    yes    0.000000    0.000000   29.936001   160     0.1871

  Lengths:   7.013420   7.013520  29.936001
  Angles:   90.000000  90.000000 120.000000

Effective grid spacing dv^(1/3) = 0.1708

                     log10-error:    total        iterations:
           time      wfs    density  energy       fermi  poisson
iter:   1  09:24:48                -274.989470    4
iter:   2  09:25:29  -0.99  -0.51  -262.522362    5
iter:   3  09:26:09  -0.41  -0.57  -279.133633    37
iter:   4  09:26:51  -1.86  -0.52  -251.440671    31
iter:   5  09:27:32  -2.71  -0.72  -249.066893    4
iter:   6  09:28:15  -1.47  -0.72  -245.036119    3
iter:   7  09:28:57  -1.45  -0.79  -239.927407    33
iter:   8  09:29:38  -1.51  -0.89  -238.124983    6
iter:   9  09:30:19  -2.24  -0.97  -237.607097    32
iter:  10  09:31:00  -1.82  -0.95  -237.434750    31
iter:  11  09:31:41  -1.55  -0.92  -243.266537    36
iter:  12  09:32:22  -2.41  -0.83  -247.613700    4
iter:  13  09:33:04  -1.79  -0.80  -235.920206    30
iter:  14  09:33:45  -2.31  -1.04  -238.165782    33
[...]

[...]

Density initialized from wave functions

                     Li
           Li      Li
             Li        N  Li
                  Li Li
              LiN   Li LiN
                            Li
           Li   Li Li    Li
              N   Li   N  Li
             Li      Li
              LiN   Li LiN  Li

[...]

                     Li
           Li      Li
             Li       N   Li
                  Li Li
              LiN   Li LiN  Li

           Li   Li Li    Li
              N   Li   N  Li
             Li      Li
              LiN   Li LiN  Li

           Li N Li Li  N Li
                  Li      Li
             Li N    Li  N
              Li    Li Li   Li
           Li      Li
              N Li     N Li
             Li   Li Li   Li
                N        N
              Li    Li Li   Li

[...]

                     Li
           Li      Li
             Li       N   Li
                 Li  Li
              LiN   Li LiN  Li

           Li N Li Li    Li
                  Li   N  Li
             Li      Li
              LiN   Li LiN  Li

[...]

                     Li
           Li N    Li
             Li       N   Li
                 Li Lii  N
              LiN      Li   Li

[...]

                     Li
           Li N    Li
             Li        N  Li
                 Li Lii  N
              LiN      Li   Li

[...]

                     Li
           Li N    Li
             Li        N  Li
                NLi Lii  N
              Li       Li   Li

[...]

           Li N Li Li  N Li
                  Li      Li
             Li N    Li  N
              Li    Li Li   Li
           Li      Li
              N Li     N Li
             Li   Li Li   Li
                N        N
              Li    Li Li   Li

[...]

           Li N Li Li  N Li
                  Li      Li
             Li N    Li  N
              Li    Li Li   Li
           Li      Li
              N Li     N Li
             Li   Li Li   Li
              LiN      LiN
                    Li      Li

[...]

                   LiLi
           Li N
             Li        N  Li
                NLi Lii  N
              Li       Li   Li

[...]

           Li N Li Li  N Li
                  Li      Li
             Li N    Li  N
              Li    Li Li   Li
           Li      Li
              N Li     N Li
             Li   Li Li   Li
              LiN      LiN
                    Li      Li

[...]

           Li N Li Li  N Li
                  Li      Li
             Li N    Li  N
              Li    Li Li   Li
           Li      Li
              N Li     N Li
                  Li      Li
             Li N    Li  N
              Li    Li Li   Li
           Li      Li
              N Li     N Li
             Li   Li Li   Li
              LiN      LiN
                    Li      Li

[...]

                   LiLi
           Li N
             Li        N  Li
                NLi Lii  N
              Li       Li   Li

[...]

                     Li
           Li N    Li
             Li        N  Li
                NLi Lii  N
              Li       Li   Li

           Li N Li Li  N Li
                  Li      Li
             Li N    Li  N
              Li    Li Li   Li
           Li      Li
              N Li     N Li
                  Li      Li
             Li N    Li  N
              Li    Li Li   Li
           Li      Li
              N Li     N Li
             Li   Li Li   Li
              LiN      LiN
                    Li      Li

[...]

                     Li
           Li N    Li
             Li        N  Li
                NLi Lii  N
              Li       Li   Li
                   Li
           Li N Li     N Li
             Li   Li      Li
                N    Li  N
              Li    Li Li   Li
           Li      Li
              N Li     N Li
             Li   Li Li   Li
                N        N
              Li    Li Li   Li
           Li      Li
              N Li     N Li
             Li   Li Li   Li
              LiN      LiN
                    Li      Li
                Li       Li

[...]

           Li      LiLi
             Li        N
                 Li       Li
              LiN   LiiLiN
                            Li
           Li      Li    Li
              N LiLi   N  Li
             Li      Li
              LiN   Li LiN
                            Li
           Li   Li Li    Li
              N   Li   N  Li
             Li      Li
              LiN   Li LiN  Li

[...]

           Li      LiLi
             Li        N
                 Li       Li
              LiN   LiiLiN
                            Li
           Li      Li    Li
              N LiLi   N  Li
             Li      Li
              LiN   Li LiN
                            Li
           Li   Li Li    Li
              N   Li   N  Li
             Li      Li
              LiN   Li LiN  Li

[...]

           Li      LLi
             Li        N
                 Li       Li
              Li N  LiiLiN
                            Li
           Li      Li    Li
              N LiLi   N  Li
             Li      Li
              LiN   Li LiN
                            Li
           Li   Li Li    Li
              N   Li   N  Li
             Li      Li
              LiN   Li LiN  Li

[...]

           Li      LLi
             Li        N
                 Li       Li
              Li N  LiiLiN
                            Li
           Li      Li    Li
              N LiLi   N  Li
             Li      Li
              LiN   Li LiN
                            Li
           Li   Li Li    Li
              N   Li   N  Li
             Li      Li
              LiN   Li LiN  Li

[...]

           Li      LLi
             Li        N
                 Li       Li
              Li N  LiiLiN
                            Li
           Li   Li Li    Li
              N   Li   N  Li
             Li      Li
              LiN   Li LiN
                            Li
           Li   Li Li    Li
              N   Li   N  Li
             Li      Li
              LiN   Li LiN  Li

[...]

           Li      LLi
             Li        N
                 Li       Li
              Li N  LiiLiN
                            Li
           Li   Li Li    Li
              N   Li   N  Li
             Li      Li
              LiN   Li LiN
                            Li
           Li   Li Li    Li
              N   Li   N  Li
             Li      Li
              LiN   Li LiN  Li

[...]

           Li      LLi
             Li        N
                 Li       Li
              Li N  LiiLiN   Li

           Li   Li Li    Li
              N   Li   N  Li
             Li      Li
              LiN   Li LiN
                            Li
           Li   Li Li    Li
              N   Li   N  Li
             Li      Li
              LiN   Li LiN  Li

[...]

System changes: positions

Initializing position-dependent things.

Density initialized from wave functions

           Li      LLi
             Li        N
                 Li       Li
              Li N  LiiLiN   Li

           Li   Li Li    Li
              N   Li   N  Li
             Li      Li
              LiN   Li LiN
                            Li
           Li   Li Li    Li
              N   Li   N  Li
             Li      Li
              LiN   Li LiN  Li

           Li N Li Li  N Li
                  Li      Li
             Li N    Li  N
              Li    Li Li   Li

                Li       Li

Positions:
   0 Li     1.753189    1.012426    1.530029    ( 0.0000,  0.0000,  0.0000)
   1 Li    -0.000191    4.049369    1.530029    ( 0.0000,  0.0000,  0.0000)
   2 Li     5.259899    1.012426    1.530029    ( 0.0000,  0.0000,  0.0000)
   3 Li     3.506519    4.049369    1.530029    ( 0.0000,  0.0000,  0.0000)
   4 Li     1.610303    0.765644   13.383645    ( 0.0000,  0.0000,  0.0000)
   5 Li    -0.164132    4.219460   13.311988    ( 0.0000,  0.0000,  0.0000)
   6 Li     5.480248    0.934982   13.303491    ( 0.0000,  0.0000,  0.0000)
   7 Li     3.583582    4.197335   13.180036    ( 0.0000,  0.0000,  0.0000)
   8 Li     3.592475    0.117792   16.009800    ( 0.0000,  0.0000,  0.0000)
   9 Li     1.557859    2.981057   14.630535    ( 0.0000,  0.0000,  0.0000)
  10 Li     7.012409    0.071132   15.438854    ( 0.0000,  0.0000,  0.0000)
  11 Li     5.268576    2.998626   15.166100    ( 0.0000,  0.0000,  0.0000)
  12 Li     0.057132    2.169267   16.040302    ( 0.0000,  0.0000,  0.0000)
  13 Li    -1.707751    5.081403   15.470390    ( 0.0000,  0.0000,  0.0000)
  14 Li     3.553094    1.831663   14.611984    ( 0.0000,  0.0000,  0.0000)
  15 Li     1.726605    5.041195   15.206311    ( 0.0000,  0.0000,  0.0000)
  16 Li     3.506465    0.000182    3.465092    ( 0.0000,  0.0000,  0.0000)
  17 Li     1.753085    3.037125    3.465092    ( 0.0000,  0.0000,  0.0000)
  18 Li     7.013175    0.000182    3.465092    ( 0.0000,  0.0000,  0.0000)
  19 Li     5.259795    3.037125    3.465092    ( 0.0000,  0.0000,  0.0000)
  20 Li    -0.000262    2.024791    3.465092    ( 0.0000,  0.0000,  0.0000)
  21 Li    -1.753642    5.061734    3.465092    ( 0.0000,  0.0000,  0.0000)
  22 Li     3.506448    2.024791    3.465092    ( 0.0000,  0.0000,  0.0000)
  23 Li     1.753068    5.061734    3.465092    ( 0.0000,  0.0000,  0.0000)
  24 Li     1.753084    1.012487    5.431887    ( 0.0000,  0.0000,  0.0000)
  25 Li    -0.000296    4.049430    5.431887    ( 0.0000,  0.0000,  0.0000)
  26 Li     5.259794    1.012487    5.431887    ( 0.0000,  0.0000,  0.0000)
  27 Li     3.506414    4.049430    5.431887    ( 0.0000,  0.0000,  0.0000)
  28 Li     3.506429    0.000182    7.378027    ( 0.0000,  0.0000,  0.0000)
  29 Li     1.753049    3.037125    7.378027    ( 0.0000,  0.0000,  0.0000)
  30 Li     7.013139    0.000182    7.378027    ( 0.0000,  0.0000,  0.0000)
  31 Li     5.259759    3.037125    7.378027    ( 0.0000,  0.0000,  0.0000)
  32 Li    -0.000297    2.024791    7.378027    ( 0.0000,  0.0000,  0.0000)
  33 Li    -1.753677    5.061734    7.378027    ( 0.0000,  0.0000,  0.0000)
  34 Li     3.506413    2.024791    7.378027    ( 0.0000,  0.0000,  0.0000)
  35 Li     1.753033    5.061734    7.378027    ( 0.0000,  0.0000,  0.0000)
  36 Li     1.773083    1.052138    9.377543    ( 0.0000,  0.0000,  0.0000)
  37 Li     0.017826    4.038710    9.361423    ( 0.0000,  0.0000,  0.0000)
  38 Li     5.242957    1.029501    9.359192    ( 0.0000,  0.0000,  0.0000)
  39 Li     3.492233    4.023018    9.315735    ( 0.0000,  0.0000,  0.0000)
  40 Li     3.515755    0.017465   11.443971    ( 0.0000,  0.0000,  0.0000)
  41 Li     1.755667    3.047355   11.393349    ( 0.0000,  0.0000,  0.0000)
  42 Li     7.013147    0.012555   11.198204    ( 0.0000,  0.0000,  0.0000)
  43 Li     5.262680    3.040058   11.305927    ( 0.0000,  0.0000,  0.0000)
  44 Li     0.006969    2.043161   11.430844    ( 0.0000,  0.0000,  0.0000)
  45 Li    -1.744060    5.069344   11.188438    ( 0.0000,  0.0000,  0.0000)
  46 Li     3.510174    2.032921   11.362180    ( 0.0000,  0.0000,  0.0000)
  47 Li     1.749418    5.066978   11.272234    ( 0.0000,  0.0000,  0.0000)
  48 N      1.753084    1.012487    3.439048    ( 0.0000,  0.0000,  0.0000)
  49 N     -0.000296    4.049430    3.439048    ( 0.0000,  0.0000,  0.0000)
  50 N      5.259794    1.012487    3.439048    ( 0.0000,  0.0000,  0.0000)
  51 N      3.506414    4.049430    3.439048    ( 0.0000,  0.0000,  0.0000)
  52 N      1.753031    1.012517    7.360963    ( 0.0000,  0.0000,  0.0000)
  53 N     -0.000349    4.049460    7.360963    ( 0.0000,  0.0000,  0.0000)
  54 N      5.259741    1.012517    7.360963    ( 0.0000,  0.0000,  0.0000)
  55 N      3.506361    4.049460    7.360963    ( 0.0000,  0.0000,  0.0000)
  56 N      1.749436    1.009436   11.371852    ( 0.0000,  0.0000,  0.0000)
  57 N     -0.004743    4.067095   11.323009    ( 0.0000,  0.0000,  0.0000)
  58 N      5.273888    1.018109   11.318317    ( 0.0000,  0.0000,  0.0000)
  59 N      3.511788    4.062837   11.229474    ( 0.0000,  0.0000,  0.0000)
  60 N      1.816526    1.121816   15.381271    ( 0.0000,  0.0000,  0.0000)
  61 N     -0.008775    4.078149   15.252177    ( 0.0000,  0.0000,  0.0000)
  62 N      5.284173    1.018252   15.240592    ( 0.0000,  0.0000,  0.0000)
  63 N      3.472650    3.985626   15.067173    ( 0.0000,  0.0000,  0.0000)
  64 Li     2.798025    2.772119   16.506732    ( 0.0000,  0.0000,  0.0000)

Unit cell:
           periodic     x           y           z      points  spacing
  1. axis:    yes    7.013420    0.000000    0.000000    40     0.1518
  2. axis:    yes   -3.506760    6.073886    0.000000    40     0.1518
  3. axis:    yes    0.000000    0.000000   29.936001   160     0.1871

  Lengths:   7.013420   7.013520  29.936001
  Angles:   90.000000  90.000000 120.000000

Effective grid spacing dv^(1/3) = 0.1708

                     log10-error:    total        iterations:
           time      wfs    density  energy       fermi  poisson
iter:   1  17:01:33  -4.18         -235.079735    3
iter:   2  17:02:14  -4.72  -2.68  -235.082656    3
iter:   3  17:02:55  -5.26  -2.30  -235.071991    3
iter:   4  17:03:37  -5.68  -3.29  -235.069979    3
iter:   5  17:04:19  -6.40  -3.05  -235.070747    2
iter:   6  17:05:00  -6.41  -3.47  -235.071385    2
iter:   7  17:05:42  -6.52  -3.79  -235.071221    2
iter:   8  17:06:24  -7.32  -3.99  -235.071121    2
iter:   9  17:07:08  -7.31  -4.07  -235.071150    2

Converged after 9 iterations.

Dipole moment: (-1.097431, -0.555714, -11.440531) |e|*Ang

Energy contributions relative to reference atoms: (reference = -33644.147259)

Kinetic:       +251.956262
Potential:     -186.265020
External:        +0.000000
XC:            -299.441629
Entropy (-ST):   -0.075936
Local:           -1.282796
Free energy:   -235.109118
Extrapolated:  -235.071150

Fermi level: -0.28584

Showing only first 2 kpts
 Kpt  Band  Eigenvalues  Occupancy
  0    62     -0.62838    0.07992
  0    63     -0.09246    0.00164
  0    64     -0.05437    0.00077
  0    65      0.09081    0.00004

  1    62     -0.65692    0.15990
  1    63     -0.33145    0.11415
  1    64     -0.18221    0.01788
  1    65      0.29251    0.00000

Forces in eV/Ang:
  0 Li   -0.00006    0.00008   -0.06024
  1 Li   -0.00006    0.00003   -0.06001
  2 Li   -0.00009    0.00006   -0.05998
  3 Li   -0.00009    0.00002   -0.05991
  4 Li   -0.00028   -0.00204   -0.00407
  5 Li   -0.00336   -0.00025   -0.00660
  6 Li   -0.00044   -0.00300   -0.01252
  7 Li    0.00508    0.00933    0.03512
  8 Li   -0.00509   -0.00229   -0.02481
  9 Li    0.00798    0.00028   -0.01507
 10 Li   -0.01800   -0.00158   -0.03451
 11 Li    0.00921   -0.01160    0.00345
 12 Li    0.00246   -0.00679   -0.01892
 13 Li    0.00593   -0.01627   -0.01986
 14 Li   -0.00440    0.01032   -0.01593
 15 Li   -0.01153   -0.00005    0.00821
 16 Li    0.00036   -0.00023   -0.04871
 17 Li   -0.00001    0.00021   -0.04813
 18 Li   -0.00033   -0.00025   -0.04954
 19 Li    0.00002   -0.00018   -0.04846
 20 Li   -0.00035    0.00033   -0.04861
 21 Li   -0.00002   -0.00029   -0.04952
 22 Li    0.00021    0.00023   -0.04814
 23 Li   -0.00014    0.00004   -0.04858
 24 Li    0.00077    0.00155   -0.06508
 25 Li    0.00081   -0.00077   -0.06595
 26 Li   -0.00089    0.00063   -0.06637
 27 Li   -0.00088   -0.00174   -0.07474
 28 Li   -0.00274   -0.00899    0.01529
 29 Li   -0.01043    0.00322   -0.03825
 30 Li    0.00294    0.00469    0.03675
 31 Li    0.01096    0.00566   -0.00280
 32 Li   -0.00588   -0.00649    0.00781
 33 Li    0.00283    0.00644    0.03559
 34 Li    0.00625   -0.00799   -0.04030
 35 Li   -0.00226    0.01271    0.00251
 36 Li    0.01172    0.02012    0.01298
 37 Li    0.01149   -0.00482    0.00498
 38 Li   -0.00979    0.00812    0.00362
 39 Li   -0.00988   -0.01791   -0.00386
 40 Li    0.00195    0.00379    0.00204
 41 Li   -0.00269   -0.00097    0.00613
 42 Li    0.00209    0.01070   -0.00607
 43 Li    0.00508   -0.00189   -0.00728
 44 Li    0.00254    0.00322   -0.00718
 45 Li    0.00950    0.00735   -0.01128
 46 Li    0.00062   -0.00342   -0.00939
 47 Li   -0.00477    0.00340   -0.01782
 48 N    -0.00102   -0.00136    0.12688
 49 N    -0.00079    0.00063    0.11684
 50 N     0.00043   -0.00027    0.11510
 51 N     0.00026    0.00107    0.11583
 52 N     0.01622    0.03131    0.21071
 53 N     0.01542   -0.01202    0.13785
 54 N    -0.01594    0.01234    0.12965
 55 N    -0.01263   -0.02452   -0.02130
 56 N    -0.00191   -0.00365    0.00905
 57 N    -0.00166    0.00232   -0.00481
 58 N     0.00303    0.00032   -0.00852
 59 N     0.00232    0.00306   -0.00950
 60 N    -0.00441   -0.00899   -0.00330
 61 N    -0.01579   -0.00105    0.00118
 62 N     0.00465   -0.01328   -0.00580
 63 N     0.01097    0.01722   -0.01673
 64 Li   -0.00877   -0.01160    0.00497

Date: Tue Sep  7 17:07:25 2021