User:   jywang@lbnode01
Date:   Mon Aug 23 23:56:59 2021
Arch:   x86_64
Pid:    125148
Python: 3.7.4
gpaw:   /home/jywang/intel/intelpython3/lib/python3.7/site-packages/gpaw
_gpaw:  /home/jywang/intel/intelpython3/lib/python3.7/site-packages/
        _gpaw.cpython-37m-x86_64-linux-gnu.so
ase:    /home/jywang/intel/intelpython3/lib/python3.7/site-packages/ase (version 3.19.0)
numpy:  /home/jywang/intel/intelpython3/lib/python3.7/site-packages/numpy (version 1.17.4)
scipy:  /home/jywang/intel/intelpython3/lib/python3.7/site-packages/scipy (version 1.3.2)
units:  Angstrom and eV
cores: 32
OMP_NUM_THREADS: 1

Input parameters:
  convergence: {eigenstates: 1e-08}
  kpts: [11 11  1]
  mode: {ecut: 500.0,
         gammacentered: False,
         name: pw}
  occupations: {name: fermi-dirac,
                width: 0.03}
  random: True
  xc: PBE

System changes: positions, numbers, cell, pbc, initial_charges, initial_magmoms

Initialize ...

Li-setup:
  name: Lithium
  id: 830b4218f175192f93f959cfc0aad614
  Z: 3
  valence: 1
  core: 2
  charge: 0.0
  file: /home/jywang/gpaw_paws/gpaw-setups-0.9.20000/Li.PBE.gz
  compensation charges: gauss, rc=0.33, lmax=2
  cutoffs: 1.91(filt), 2.55(core),
  valence states:
                energy  radius
    2s(1.00)    -2.874   1.058
    2p(0.00)    -1.090   1.058
    *s          24.337   1.058

  Using partial waves for Li as LCAO basis

N-setup:
  name: Nitrogen
  id: f7500608b86eaa90eef8b1d9a670dc53
  Z: 7
  valence: 5
  core: 2
  charge: 0.0
  file: /home/jywang/gpaw_paws/gpaw-setups-0.9.20000/N.PBE.gz
  compensation charges: gauss, rc=0.18, lmax=2
  cutoffs: 1.11(filt), 0.96(core),
  valence states:
                energy  radius
    2s(2.00)   -18.583   0.603
    2p(3.00)    -7.089   0.529
    *s           8.629   0.603
    *p          20.123   0.529
    *d           0.000   0.577

  Using partial waves for N as LCAO basis

Reference energy: -8360.339860

Spin-paired calculation

Occupation numbers:
  Fermi-Dirac: width=0.0300 eV

Convergence criteria:
  Maximum total energy change: 0.0005 eV / electron
  Maximum integral of absolute density change: 0.0001 electrons
  Maximum integral of absolute eigenstate change: 1e-08 eV^2
  Maximum number of iterations: 333

Symmetries present (total): 1

  ( 1  0  0)
  ( 0  1  0)
  ( 0  0  1)

121 k-points: 11 x 11 x 1 Monkhorst-Pack grid
61 k-points in the irreducible part of the Brillouin zone
       k-points in crystal coordinates                weights
   0:     0.00000000    0.00000000    0.00000000          1/121
   1:     0.00000000    0.09090909    0.00000000          2/121
   2:     0.00000000    0.18181818    0.00000000          2/121
   3:     0.00000000    0.27272727    0.00000000          2/121
   4:     0.00000000    0.36363636    0.00000000          2/121
   5:     0.00000000    0.45454545    0.00000000          2/121
   6:     0.09090909   -0.45454545    0.00000000          2/121
   7:     0.09090909   -0.36363636    0.00000000          2/121
   8:     0.09090909   -0.27272727    0.00000000          2/121
   9:     0.09090909   -0.18181818    0.00000000          2/121
          ...
  60:     0.45454545    0.45454545    0.00000000          2/121

Wave functions: Plane wave expansion
  Cutoff energy: 500.000 eV
  Number of coefficients (min, max): 8030, 8145
  Pulay-stress correction: 0.000000 eV/Ang^3 (de/decut=0.000000)
  Using FFTW library
  ScaLapack parameters: grid=1x1, blocksize=None
  Wavefunction extrapolation:
    Improved wavefunction reuse through dual PAW basis

Eigensolver
   Davidson(niter=2, smin=None, normalize=True)

Densities:
  Coarse grid: 20*20*160 grid
  Fine grid: 40*40*320 grid
  Total Charge: 0.000000

Density mixing:
  Method: separate
  Backend: pulay
  Linear mixing parameter: 0.05
  Mixing with 5 old densities
  Damping of long wave oscillations: 50

Hamiltonian:
  XC and Coulomb potentials evaluated on a 40*40*320 grid
  Using the PBE Exchange-Correlation functional

XC parameters: PBE with 2 nearest neighbor stencil

Total number of cores used: 32
Parallelization over k-points: 32

Number of atoms: 16
Number of atomic orbitals: 64
Number of bands in calculation: 24
Number of valence electrons: 32
Bands to converge: occupied

... initialized

Initializing position-dependent things.

Density initialized from atomic densities
Creating initial wave functions:
  24 bands from LCAO basis set

         Li N
       Li

            Li
         Li
            N
       Li
            Li

         Li
       Li   N

[...]

Positions:
   0 Li     1.753347    1.012335    1.866989    ( 0.0000,  0.0000,  0.0000)
   1 Li     0.000000    0.000000    3.734007    ( 0.0000,  0.0000,  0.0000)
   2 N      1.753347    1.012335    3.734007    ( 0.0000,  0.0000,  0.0000)
   3 Li    -0.000017    2.024669    3.734007    ( 0.0000,  0.0000,  0.0000)
   4 Li     1.753347    1.012335    5.600996    ( 0.0000,  0.0000,  0.0000)
   5 Li     0.000000    0.000000    7.467984    ( 0.0000,  0.0000,  0.0000)
   6 N      1.753347    1.012335    7.467984    ( 0.0000,  0.0000,  0.0000)
   7 Li    -0.000017    2.024669    7.467984    ( 0.0000,  0.0000,  0.0000)
   8 Li     1.753347    1.012335    9.334973    ( 0.0000,  0.0000,  0.0000)
   9 Li     0.000000    0.000000   11.201992    ( 0.0000,  0.0000,  0.0000)
  10 N      1.753347    1.012335   11.201992    ( 0.0000,  0.0000,  0.0000)
  11 Li    -0.000017    2.024669   11.201992    ( 0.0000,  0.0000,  0.0000)
  12 Li     1.753347    1.012335   13.068980    ( 0.0000,  0.0000,  0.0000)
  13 Li     0.000000    0.000000   14.935969    ( 0.0000,  0.0000,  0.0000)
  14 N      1.753347    1.012335   14.935969    ( 0.0000,  0.0000,  0.0000)
  15 Li    -0.000017    2.024669   14.935969    ( 0.0000,  0.0000,  0.0000)

Unit cell:
           periodic     x           y           z      points  spacing
  1. axis:    yes    3.506710    0.000000    0.000000    20     0.1518
  2. axis:    yes   -1.753380    3.036943    0.000000    20     0.1518
  3. axis:    yes    0.000000    0.000000   29.936001   160     0.1871

  Lengths:   3.506710   3.506760  29.936001
  Angles:   90.000000  90.000000 120.000000

Effective grid spacing dv^(1/3) = 0.1708

                     log10-error:    total        iterations:
           time      wfs    density  energy       fermi  poisson
iter:   1  23:57:14                 -67.264568    5
iter:   2  23:57:17  -1.12  -0.51   -65.015296    33
iter:   3  23:57:20  -1.83  -0.61   -64.592247    0
iter:   4  23:57:23  -0.77  -0.59   -61.950147    35
iter:   5  23:57:26  -1.90  -0.82   -59.117709    31
iter:   6  23:57:29  +0.03  -0.80  -122.329391    31
iter:   7  23:57:32  -0.39  -0.21   -57.407439    32
iter:   8  23:57:35  -0.51  -0.89   -58.898797    33
iter:   9  23:57:39  -0.26  -0.88   -60.049088    4
iter:  10  23:57:42  -0.29  -0.89   -59.952496    4
iter:  11  23:57:45  -0.96  -0.91   -58.837225    6
iter:  12  23:57:47  -1.33  -0.99   -66.506600    34
iter:  13  23:57:50  -3.02  -0.57   -62.687249    4
iter:  14  23:57:54  -3.16  -0.74   -64.755408    4
iter:  15  23:57:57  -3.37  -0.65   -66.307967    4
iter:  16  23:58:00  -1.03  -0.59   -58.396857    29
iter:  17  23:58:03  -2.53  -1.06   -58.139291    4
iter:  18  23:58:07  -2.50  -1.11   -57.593308    32
iter:  19  23:58:10  -2.50  -1.31   -57.668509    4
iter:  20  23:58:12  -2.96  -1.36   -57.599586    5
iter:  21  23:58:15  -3.32  -1.51   -58.041590    4
iter:  22  23:58:19  -1.97  -1.13   -57.970698    30
iter:  23  23:58:22  -3.34  -1.31   -57.937969    6
iter:  24  23:58:25  -2.89  -1.44   -57.770852    5
iter:  25  23:58:29  -4.34  -1.52   -57.798524    4
iter:  26  23:58:32  -3.81  -1.50   -57.589092    4
iter:  27  23:58:35  -3.63  -1.85   -57.562804    5
iter:  28  23:58:38  -4.31  -1.87   -57.564404    5
iter:  29  23:58:41  -3.98  -1.91   -57.548482    3
iter:  30  23:58:45  -5.29  -1.99   -57.543842    4
iter:  31  23:58:48  -5.08  -2.08   -57.545068    3
iter:  32  23:58:51  -4.25  -2.02   -57.541339    4
iter:  33  23:58:55  -3.62  -2.12   -57.541471    4
iter:  34  23:58:58  -5.04  -2.42   -57.543053    2
iter:  35  23:59:01  -4.81  -2.15   -57.539699    3
iter:  36  23:59:04  -5.05  -2.49   -57.539890    3
iter:  37  23:59:07  -5.52  -2.48   -57.539891    2
iter:  38  23:59:10  -5.66  -2.59   -57.540441    3
iter:  39  23:59:13  -5.57  -2.41   -57.539917    3
iter:  40  23:59:16  -5.18  -2.61   -57.540055    3
iter:  41  23:59:19  -5.55  -2.74   -57.541086    3
iter:  42  23:59:22  -5.32  -2.57   -57.540452    3
iter:  43  23:59:25  -6.11  -2.86   -57.540012    3
iter:  44  23:59:28  -6.75  -3.12   -57.540043    3
iter:  45  23:59:31  -7.04  -3.42   -57.539994    3
iter:  46  23:59:35  -6.95  -3.22   -57.540004    3
iter:  47  23:59:39  -7.78  -3.67   -57.539991    2
iter:  48  23:59:42  -7.02  -3.51   -57.540010    3
iter:  49  23:59:45  -7.87  -3.96   -57.540018    2
iter:  50  23:59:48  -8.05  -3.85   -57.540025    2
iter:  51  23:59:51  -8.44  -3.78   -57.540019    2
iter:  52  23:59:54  -8.25  -3.92   -57.540017    2
iter:  53  23:59:57  -8.17  -4.03   -57.540004    2

Converged after 53 iterations.

Dipole moment: (-0.697035, 0.402812, -1.865537) |e|*Ang

Energy contributions relative to reference atoms: (reference = -8360.339860)

Kinetic:        +74.324770
Potential:      -54.617120
External:        +0.000000
XC:             -76.911519
Entropy (-ST):   -0.015384
Local:           -0.328443
Free energy:    -57.547696
Extrapolated:   -57.540004

Fermi level: -1.01081

Showing only first 2 kpts
 Kpt  Band  Eigenvalues  Occupancy
  0    14     -1.23673    0.01652
  0    15     -0.82005    0.00003
  0    16     -0.81995    0.00003
  0    17      0.24139    0.00000

  1    14     -1.34955    0.03306
  1    15     -1.00153    0.01399
  1    16     -0.92536    0.00181
  1    17      0.46151    0.00000

No gap

Forces in eV/Ang:
  0 Li   -0.00000    0.00000   -0.38786
  1 Li    0.00004    0.00028    0.02904
  2 N    -0.00031    0.00018   -0.38617
  3 Li   -0.00004   -0.00028    0.02904
  4 Li   -0.00000    0.00000    0.18982
  5 Li    0.00004    0.00028    0.05297
  6 N    -0.00032    0.00018   -0.23611
  7 Li   -0.00004   -0.00028    0.05297
  8 Li   -0.00000    0.00000    0.13735
  9 Li    0.00004    0.00028    0.06788
 10 N    -0.00032    0.00018   -0.22855
 11 Li   -0.00004   -0.00028    0.06788
 12 Li   -0.00000    0.00000    0.02305
 13 Li    0.00003    0.00024    0.60628
 14 N    -0.00030    0.00017   -0.55710
 15 Li   -0.00003   -0.00024    0.60628

System changes: positions

[...]

Density initialized from wave functions

[...]

System changes: positions

Initializing position-dependent things.

Density initialized from wave functions

[...]

         Li
       Li   N

[...]

         Li N
       Li

[...]

            Li

Positions:
   0 Li     1.753188    1.012427    1.530076    ( 0.0000,  0.0000,  0.0000)
   1 Li    -0.000248    0.000168    3.465237    ( 0.0000,  0.0000,  0.0000)
   2 N      1.753066    1.012497    3.439040    ( 0.0000,  0.0000,  0.0000)
   3 Li    -0.000271    2.024793    3.465238    ( 0.0000,  0.0000,  0.0000)
   4 Li     1.753097    1.012479    5.431957    ( 0.0000,  0.0000,  0.0000)
   5 Li    -0.000271    0.000182    7.377924    ( 0.0000,  0.0000,  0.0000)
   6 N      1.753045    1.012510    7.360965    ( 0.0000,  0.0000,  0.0000)
   7 Li    -0.000295    2.024806    7.377925    ( 0.0000,  0.0000,  0.0000)
   8 Li     1.753089    1.012484    9.352253    ( 0.0000,  0.0000,  0.0000)
   9 Li    -0.000264    0.000177   11.319809    ( 0.0000,  0.0000,  0.0000)
  10 N      1.753053    1.012505   11.295925    ( 0.0000,  0.0000,  0.0000)
  11 Li    -0.000286    2.024802   11.319809    ( 0.0000,  0.0000,  0.0000)
  12 Li     1.753107    1.012474   13.291287    ( 0.0000,  0.0000,  0.0000)
  13 Li    -0.000308    0.000201   15.411593    ( 0.0000,  0.0000,  0.0000)
  14 N      1.753011    1.012529   15.214808    ( 0.0000,  0.0000,  0.0000)
  15 Li    -0.000330    2.024828   15.411602    ( 0.0000,  0.0000,  0.0000)

Unit cell:
           periodic     x           y           z      points  spacing
  1. axis:    yes    3.506710    0.000000    0.000000    20     0.1518
  2. axis:    yes   -1.753380    3.036943    0.000000    20     0.1518
  3. axis:    yes    0.000000    0.000000   29.936001   160     0.1871

  Lengths:   3.506710   3.506760  29.936001
  Angles:   90.000000  90.000000 120.000000

Effective grid spacing dv^(1/3) = 0.1708

                     log10-error:    total        iterations:
           time      wfs    density  energy       fermi  poisson
iter:   1  00:27:18  -3.37          -57.867260    4
iter:   2  00:27:21  -3.60  -1.89   -57.962635    32
iter:   3  00:27:24  -4.03  -1.65   -57.836678    5
iter:   4  00:27:27  -5.00  -2.36   -57.835128    3
iter:   5  00:27:31  -4.73  -2.64   -57.842627    3
iter:   6  00:27:34  -5.36  -2.16   -57.833960    4
iter:   7  00:27:37  -5.71  -3.12   -57.834376    3
iter:   8  00:27:40  -6.42  -2.75   -57.833908    3
iter:   9  00:27:43  -6.06  -3.32   -57.833890    3
iter:  10  00:27:46  -6.88  -3.51   -57.833883    3
iter:  11  00:27:49  -7.81  -3.59   -57.833884    2
iter:  12  00:27:53  -6.73  -3.68   -57.833886    3
iter:  13  00:27:56  -7.97  -3.63   -57.833883    2
iter:  14  00:27:59  -7.23  -3.73   -57.833877    2
iter:  15  00:28:02  -7.94  -4.05   -57.833877    2
iter:  16  00:28:05  -7.83  -4.15   -57.833878    2
iter:  17  00:28:08  -8.62  -4.23   -57.833878    2

Converged after 17 iterations.

Dipole moment: (-0.657006, 0.379181, -2.935924) |e|*Ang

Energy contributions relative to reference atoms: (reference = -8360.339860)

Kinetic:        +64.459674
Potential:      -47.546134
External:        +0.000000
XC:             -74.419702
Entropy (-ST):   -0.014618
Local:           -0.320408
Free energy:    -57.841187
Extrapolated:   -57.833878

Fermi level: -0.84281

Showing only first 2 kpts
 Kpt  Band  Eigenvalues  Occupancy
  0    14     -0.90560    0.01471
  0    15     -0.57700    0.00000
  0    16     -0.57698    0.00000
  0    17      0.25166    0.00000

  1    14     -1.01774    0.03296
  1    15     -0.76603    0.00237
  1    16     -0.68184    0.00015
  1    17      0.47799    0.00000

No gap

Forces in eV/Ang:
  0 Li   -0.00008    0.00005   -0.03476
  1 Li   -0.00007    0.00004   -0.03311
  2 N    -0.00009    0.00005    0.03506
  3 Li   -0.00007    0.00004   -0.03311
  4 Li   -0.00004    0.00003   -0.02170
  5 Li   -0.00008    0.00005    0.01580
  6 N    -0.00010    0.00006    0.02865
  7 Li   -0.00008    0.00005    0.01580
  8 Li   -0.00004    0.00002    0.01103
  9 Li   -0.00008    0.00006   -0.02026
 10 N    -0.00010    0.00006    0.02404
 11 Li   -0.00008    0.00004   -0.02026
 12 Li   -0.00008    0.00004   -0.02215
 13 Li   -0.00007    0.00007   -0.02130
 14 N    -0.00012    0.00007    0.02793
 15 Li   -0.00008    0.00002   -0.02128