User:   jywang@lbnode02
Date:   Sun Jul 25 22:22:33 2021
Arch:   x86_64
Pid:    39864
Python: 3.7.7
gpaw:   /home/jywang/intel/intelpython3/lib/python3.7/site-packages/gpaw
_gpaw:  /home/jywang/intel/intelpython3/lib/python3.7/site-packages/
        _gpaw.cpython-37m-x86_64-linux-gnu.so
ase:    /home/jywang/intel/intelpython3/lib/python3.7/site-packages/ase (version 3.19.0)
numpy:  /home/jywang/intel/intelpython3/lib/python3.7/site-packages/numpy (version 1.17.5)
scipy:  /home/jywang/intel/intelpython3/lib/python3.7/site-packages/scipy (version 1.3.3)
units:  Angstrom and eV
cores: 32
OMP_NUM_THREADS: 1

Input parameters:
  convergence: {eigenstates: 1e-08}
  kpts: [3 2 1]
  mode: {ecut: 450.00000000000006,
         gammacentered: False,
         name: pw}
  occupations: {name: fermi-dirac,
                width: 0.01}
  random: True
  xc: PBE

System changes: positions, numbers, cell, pbc, initial_charges, initial_magmoms

Initialize ...

Li-setup:
  name: Lithium
  id: 830b4218f175192f93f959cfc0aad614
  Z: 3
  valence: 1
  core: 2
  charge: 0.0
  file: /home/jywang/gpaw_paws/gpaw-setups-0.9.20000/Li.PBE.gz
  compensation charges: gauss, rc=0.33, lmax=2
  cutoffs: 1.91(filt), 2.55(core),
  valence states:
                energy  radius
    2s(1.00)    -2.874   1.058
    2p(0.00)    -1.090   1.058
    *s          24.337   1.058

  Using partial waves for Li as LCAO basis

N-setup:
  name: Nitrogen
  id: f7500608b86eaa90eef8b1d9a670dc53
  Z: 7
  valence: 5
  core: 2
  charge: 0.0
  file: /home/jywang/gpaw_paws/gpaw-setups-0.9.20000/N.PBE.gz
  compensation charges: gauss, rc=0.18, lmax=2
  cutoffs: 1.11(filt), 0.96(core),
  valence states:
                energy  radius
    2s(2.00)   -18.583   0.603
    2p(3.00)    -7.089   0.529
    *s           8.629   0.603
    *p          20.123   0.529
    *d           0.000   0.577

  Using partial waves for N as LCAO basis

Reference energy: -75445.846558

Spin-paired calculation

Occupation numbers:
  Fermi-Dirac: width=0.0100 eV

Convergence criteria:
  Maximum total energy change: 0.0005 eV / electron
  Maximum integral of absolute density change: 0.0001 electrons
  Maximum integral of absolute eigenstate change: 1e-08 eV^2
  Maximum number of iterations: 333

Symmetries present (total): 1

  ( 1  0  0)
  ( 0  1  0)
  ( 0  0  1)

6 k-points: 3 x 2 x 1 Monkhorst-Pack grid
3 k-points in the irreducible part of the Brillouin zone
       k-points in crystal coordinates                weights
   0:     0.00000000    0.25000000    0.00000000          2/6
   1:     0.33333333   -0.25000000    0.00000000          2/6
   2:     0.33333333    0.25000000    0.00000000          2/6

Wave functions: Plane wave expansion
  Cutoff energy: 450.000 eV
  Number of coefficients (min, max): 59071, 59113
  Pulay-stress correction: 0.000000 eV/Ang^3 (de/decut=0.000000)
  Using FFTW library
  ScaLapack parameters: grid=1x1, blocksize=None
  Wavefunction extrapolation:
    Improved wavefunction reuse through dual PAW basis

Eigensolver
   Davidson(niter=2, smin=None, normalize=True)

Densities:
  Coarse grid: 54*54*147 grid
  Fine grid: 108*108*294 grid
  Total Charge: 0.000000

Density mixing:
  Method: separate
  Backend: pulay
  Linear mixing parameter: 0.05
  Mixing with 5 old densities
  Damping of long wave oscillations: 50

Hamiltonian:
  XC and Coulomb potentials evaluated on a 108*108*294 grid
  Using the PBE Exchange-Correlation functional

XC parameters: PBE with 2 nearest neighbor stencil

Total number of cores used: 32
Domain decomposition: 2 x 2 x 8

Number of atoms: 145
Number of atomic orbitals: 580
Number of bands in calculation: 178
Number of valence electrons: 289
Bands to converge: occupied

... initialized

Initializing position-dependent things.

Density initialized from atomic densities
Creating initial wave functions:
  178 bands from LCAO basis set

            Li      Li     Lii
           Li Li   Li LiN  Li  Li
                  N       N       N
             LiLiLi  Li LLi   LiLLi
               Li   N   Li   N  Li   N
            Li N  LiLi  N LiLi  N Li
           Li Li   LLiLi   LiLiLi    Li
                  N       N       N
             LiLiLi  Li LLi   LiLLi
               Li LiN   LiLi N  LiLi N
            Li N    Li  N   Li  N
           Li Li   LLiLi   LiLiLi    Li
             Li   N  Li   N   Li  N
               LiLi     LLi     LLi
            Li Li LiNi  LiLiLN  LiLi N
               N        N       N
           Li Li   LLiLi   LiLiLi    Li
             LiLi N  Li LiN   LiLiN
                 Li N    Li  N   Li  N
               Li Li    LiLi    LiLi

                    Li       Li      Li

Positions:
   0 Li     3.519805    4.598526   24.275770    ( 0.0000,  0.0000,  0.0000)
   1 Li     1.717695    0.991763    8.714294    ( 0.0000,  0.0000,  0.0000)
   2 Li     5.153197    0.991763    8.714294    ( 0.0000,  0.0000,  0.0000)
   3 Li     8.588596    0.991763    8.714294    ( 0.0000,  0.0000,  0.0000)
   4 Li    -0.000071    3.967140    8.714294    ( 0.0000,  0.0000,  0.0000)
   5 Li     3.435431    3.967140    8.714294    ( 0.0000,  0.0000,  0.0000)
   6 Li     6.870830    3.967140    8.714294    ( 0.0000,  0.0000,  0.0000)
   7 Li    -1.717786    6.942428    8.714294    ( 0.0000,  0.0000,  0.0000)
   8 Li     1.717717    6.942428    8.714294    ( 0.0000,  0.0000,  0.0000)
   9 Li     5.153115    6.942428    8.714294    ( 0.0000,  0.0000,  0.0000)
  10 Li     0.000000    0.000000   10.653504    ( 0.0000,  0.0000,  0.0000)
  11 Li     3.435502    0.000000   10.653504    ( 0.0000,  0.0000,  0.0000)
  12 Li     6.870901    0.000000   10.653504    ( 0.0000,  0.0000,  0.0000)
  13 Li    -0.000010    1.983525   10.653504    ( 0.0000,  0.0000,  0.0000)
  14 Li     3.435389    1.983525   10.653504    ( 0.0000,  0.0000,  0.0000)
  15 Li     6.870891    1.983525   10.653504    ( 0.0000,  0.0000,  0.0000)
  16 Li    -1.717766    2.975377   10.653504    ( 0.0000,  0.0000,  0.0000)
  17 Li     1.717736    2.975377   10.653504    ( 0.0000,  0.0000,  0.0000)
  18 Li     5.153135    2.975377   10.653504    ( 0.0000,  0.0000,  0.0000)
  19 Li    -1.717776    4.958903   10.653504    ( 0.0000,  0.0000,  0.0000)
  20 Li     1.717623    4.958903   10.653504    ( 0.0000,  0.0000,  0.0000)
  21 Li     5.153125    4.958903   10.653504    ( 0.0000,  0.0000,  0.0000)
  22 Li    -3.435480    5.950666   10.653504    ( 0.0000,  0.0000,  0.0000)
  23 Li     0.000022    5.950666   10.653504    ( 0.0000,  0.0000,  0.0000)
  24 Li     3.435421    5.950666   10.653504    ( 0.0000,  0.0000,  0.0000)
  25 Li    -3.435490    7.934191   10.653504    ( 0.0000,  0.0000,  0.0000)
  26 Li    -0.000091    7.934191   10.653504    ( 0.0000,  0.0000,  0.0000)
  27 Li     3.435411    7.934191   10.653504    ( 0.0000,  0.0000,  0.0000)
  28 Li     1.717695    0.991763   12.627088    ( 0.0000,  0.0000,  0.0000)
  29 Li     5.153197    0.991763   12.627088    ( 0.0000,  0.0000,  0.0000)
  30 Li     8.588596    0.991763   12.627088    ( 0.0000,  0.0000,  0.0000)
  31 Li    -0.000071    3.967140   12.627088    ( 0.0000,  0.0000,  0.0000)
  32 Li     3.435431    3.967140   12.627088    ( 0.0000,  0.0000,  0.0000)
  33 Li     6.870830    3.967140   12.627088    ( 0.0000,  0.0000,  0.0000)
  34 Li    -1.717786    6.942428   12.627088    ( 0.0000,  0.0000,  0.0000)
  35 Li     1.717717    6.942428   12.627088    ( 0.0000,  0.0000,  0.0000)
  36 Li     5.153115    6.942428   12.627088    ( 0.0000,  0.0000,  0.0000)
  37 Li     0.000000    0.000000   14.576373    ( 0.0000,  0.0000,  0.0000)
  38 Li     3.435502    0.000000   14.576373    ( 0.0000,  0.0000,  0.0000)
  39 Li     6.870901    0.000000   14.576373    ( 0.0000,  0.0000,  0.0000)
  40 Li    -0.000010    1.983525   14.576373    ( 0.0000,  0.0000,  0.0000)
  41 Li     3.435389    1.983525   14.576373    ( 0.0000,  0.0000,  0.0000)
  42 Li     6.870891    1.983525   14.576373    ( 0.0000,  0.0000,  0.0000)
  43 Li    -1.717766    2.975377   14.576373    ( 0.0000,  0.0000,  0.0000)
  44 Li     1.717736    2.975377   14.576373    ( 0.0000,  0.0000,  0.0000)
  45 Li     5.153135    2.975377   14.576373    ( 0.0000,  0.0000,  0.0000)
  46 Li    -1.717776    4.958903   14.576373    ( 0.0000,  0.0000,  0.0000)
  47 Li     1.717623    4.958903   14.576373    ( 0.0000,  0.0000,  0.0000)
  48 Li     5.153125    4.958903   14.576373    ( 0.0000,  0.0000,  0.0000)
  49 Li    -3.435480    5.950666   14.576373    ( 0.0000,  0.0000,  0.0000)
  50 Li     0.000022    5.950666   14.576373    ( 0.0000,  0.0000,  0.0000)
  51 Li     3.435421    5.950666   14.576373    ( 0.0000,  0.0000,  0.0000)
  52 Li    -3.435490    7.934191   14.576373    ( 0.0000,  0.0000,  0.0000)
  53 Li    -0.000091    7.934191   14.576373    ( 0.0000,  0.0000,  0.0000)
  54 Li     3.435411    7.934191   14.576373    ( 0.0000,  0.0000,  0.0000)
  55 Li     1.717695    0.991763   16.541957    ( 0.0000,  0.0000,  0.0000)
  56 Li     5.153197    0.991763   16.541957    ( 0.0000,  0.0000,  0.0000)
  57 Li     8.588596    0.991763   16.541957    ( 0.0000,  0.0000,  0.0000)
  58 Li    -0.000071    3.967140   16.541957    ( 0.0000,  0.0000,  0.0000)
  59 Li     3.435431    3.967140   16.541957    ( 0.0000,  0.0000,  0.0000)
[...]
 130 N     -0.000071    3.967140   18.477610    ( 0.0000,  0.0000,  0.0000)
 131 N      3.435431    3.967140   18.477610    ( 0.0000,  0.0000,  0.0000)
 132 N      6.870830    3.967140   18.477610    ( 0.0000,  0.0000,  0.0000)
 133 N     -1.717786    6.942428   18.477610    ( 0.0000,  0.0000,  0.0000)
 134 N      1.717717    6.942428   18.477610    ( 0.0000,  0.0000,  0.0000)
 135 N      5.153115    6.942428   18.477610    ( 0.0000,  0.0000,  0.0000)
 136 N      1.717695    0.991763   22.371735    ( 0.0000,  0.0000,  0.0000)
 137 N      5.153197    0.991763   22.371735    ( 0.0000,  0.0000,  0.0000)
 138 N      8.588596    0.991763   22.371735    ( 0.0000,  0.0000,  0.0000)
 139 N     -0.000071    3.967140   22.371735    ( 0.0000,  0.0000,  0.0000)
 140 N      3.435431    3.967140   22.371735    ( 0.0000,  0.0000,  0.0000)
 141 N      6.870830    3.967140   22.371735    ( 0.0000,  0.0000,  0.0000)
 142 N     -1.717786    6.942428   22.371735    ( 0.0000,  0.0000,  0.0000)
 143 N      1.717717    6.942428   22.371735    ( 0.0000,  0.0000,  0.0000)
 144 N      5.153115    6.942428   22.371735    ( 0.0000,  0.0000,  0.0000)

Unit cell:
           periodic     x           y           z      points  spacing
  1. axis:    yes   10.306300    0.000000    0.000000    54     0.1653
  2. axis:    yes   -5.153194    8.925954    0.000000    54     0.1653
  3. axis:    yes    0.000000    0.000000   29.633400   147     0.2016

  Lengths:  10.306300  10.306700  29.633400
  Angles:   90.000000  90.000000 119.999001

Effective grid spacing dv^(1/3) = 0.1853

                     log10-error:    total        iterations:
           time      wfs    density  energy       fermi  poisson
iter:   1  22:23:24                -594.956285    2
iter:   2  22:23:33  -0.96  -0.51  -566.298335    4
iter:   3  22:23:43  -1.25  -0.60  -551.632235    36
iter:   4  22:23:53  -0.66  -0.62  -517.777196    32
iter:   5  22:24:07  -0.53  -0.82  -679.126523    38
[...]
               N        N       N
           Li Li   LLiLi   LiLiLi    Li
             LiLi N  Li LiN   LiLiN
                 Li N    Li  N   Li  N
               Li Li    LiLi    LiLi

[...]

            Li      Li     Lii
           Li Li   Li   N  Li   N
                  N   Li  N    Li N
             LiLiLi  Li LLi   LiLLi
               Li   N   Li   N  Li   N
            Li N  LiLi  N LiLi  N Li
           Li Li   LLiLi   LiLiLi    Li
                  N       N       N
             LiLiLi  Li LLi   LiLLi
               Li LiN   LiLi N  LiLi N
            Li N    Li  N   Li  N
           Li Li   LLiLi   LiLiLi    Li
             Li   N  Li   N   Li  N
               LiLi     LLi     LLi
            Li Li LiNi  LiLiLN  LiLi N
               N        N       N
           Li Li   LLiLi   LiLiLi    Li
             LiLi N  Li LiN   LiLiN
                 Li N    Li  N   Li  N
               Li Li    LiLi    LiLi

[...]

            Li      Li     Lii
           Li Li   Li   N  Li   N
                  N   Li  N    Li N
             LiLiLi  Li LLi   LiLLi
               Li   N   Li   N  Li   N
            Li N  LiLi  N LiLi  N Li
           Li      LLi     LiLi      Li
              Li  N   Li  N    Li N
             LiLiLi  Li LLi   LiLLi
               Li LiN   LiLi N  LiLi N
            Li N    Li  N   Li  N
           Li Li   LLiLi   LiLiLi    Li
             Li   N  Li   N   Li  N
               LiLi     LLi     LLi
            Li Li LiNi  LiLiLN  LiLi N
               N        N       N
           Li Li   LLiLi   LiLiLi    Li
             LiLi N  Li LiN   LiLiN
                 Li N    Li  N   Li  N
               Li Li    LiLi    LiLi

[...]

            Li      Li     Lii
           Li  N   Li   N  Li   N
              Li  N   Li  N    Li N
             LiLiLi  Li LLi   LiLLi
               Li   N   Li   N  Li   N
            Li N  LiLi  N LiLi  N Li
           Li      LLi     LiLi      Li
              Li  N   Li  N    Li N
             LiLiLi  Li LLi   LiLLi
               Li LiN   LiLi N  LiLi N
            Li N    Li  N   Li  N
           Li Li   LLiLi   LiLiLi    Li
             Li   N  Li   N   Li  N
               LiLi     LLi     LLi
            Li Li LiNi  LiLiLN  LiLi N
               N        N       N
           Li Li   LLiLi   LiLiLi    Li
             LiLi N  Li LiN   LiLiN
                 Li N    Li  N   Li  N
               Li Li    LiLi    LiLi

[...]

            Li      Li     Lii
           Li  N   Li   N  Li   N
              Li  N   Li  N    Li N
             LiLiLi  Li LLi   LiLLi
               Li   N   Li   N  Li   N
            Li N  LiLi  N LiLi  N Li
           Li      LLi     LiLi      Li
              Li  N   Li  N    Li N
             LiLiLi  Li LLi   LiLLi
               Li   N   Li   N  Li   N
            Li N  LiLi  N LiLi  N Li
           Li Li   LLiLi   LiLiLi    Li
             Li   N  Li   N   Li  N
               LiLi     LLi     LLi
            Li Li LiNi  LiLiLN  LiLi N
               N        N       N
           Li Li   LLiLi   LiLiLi    Li
             LiLi N  Li LiN   LiLiN
                 Li N    Li  N   Li  N
               Li Li    LiLi    LiLi

[...]

            Li      Li     Lii
           Li  N   Li   N  Li   N
              Li  N   Li  N    Li N
             LiLiLi  Li LLi   LiLLi
               Li   N   Li   N  Li   N
            Li N  LiLi  N LiLi  N Li
           Li      LLi     LiLi      Li
              Li  N   Li  N    Li N
             LiLiLi  Li LLi   LiLLi
               Li   N   Li   N  Li   N
            Li N  LiLi  N LiLi  N Li
           Li Li   LLiLi   LiLiLi    Li
                  N       N       N
             LiLiLi  Li LLi   LiLLi
            Li Li LiNi  LiLiLN  LiLi N
               N        N       N
           Li Li   LLiLi   LiLiLi    Li
             LiLi N  Li LiN   LiLiN
                 Li N    Li  N   Li  N
               Li Li    LiLi    LiLi

[...]

            Li      Li     Lii
           Li  N   Li   N  Li   N
              Li  N   Li  N    Li N
             LiLiLi  Li LLi   LiLLi
               Li   N   Li   N  Li   N
            Li N  LiLi  N LiLi  N Li
           Li      Li      Li
              Li  N LiLi  N  LiLi N  Li
             LiLiLi  Li LLi   LiLLi
               Li   N   Li   N  Li   N
            Li N  LiLi  N LiLi  N Li
           Li Li   LLiLi   LiLiLi    Li
                  N       N       N
             LiLiLi  Li LLi   LiLLi
            Li Li LiNi  LiLiLN  LiLi N
               N        N       N
           Li Li   LLiLi   LiLiLi    Li
             LiLi N  Li LiN   LiLiN
                 Li N    Li  N   Li  N
               Li Li    LiLi    LiLi

[...]

            Li      Li     Lii
           Li  N   Li   N  Li   N
              Li  N   Li  N    Li N
             LiLiLi  Li LLi   LiLLi
               Li   N        N  Li   N
            Li N  LiLi  LiLiLi  N  Li
           Li      Li      Li
              Li  N LiLi  N  LiLi N  Li
             LiLiLi  Li LLi   LiLLi
               Li   N   Li   N  Li   N
            Li N  LiLi  N LiLi  N Li
           Li Li   LLiLi   LiLiLi    Li
                  N       N       N
             LiLiLi  Li LLi   LiLLi
            Li Li LiNi  LiLiLN  LiLi N
               N        N       N
           Li Li   LLiLi   LiLiLi    Li
             LiLi N  Li LiN   LiLiN
                 Li N    Li  N   Li  N
               Li Li    LiLi    LiLi

[...]

Converged after 14 iterations.

Dipole moment: (-4.137367, 2.499751, -0.047829) |e|*Ang

Energy contributions relative to reference atoms: (reference = -75445.846558)

Kinetic:       +599.562988
Potential:     -406.702182
External:        +0.000000
XC:            -692.592390
Entropy (-ST):   -0.011933
Local:           -3.353523
Free energy:   -503.097040
Extrapolated:  -503.091074

Fermi level: -0.47212

Showing only first 2 kpts
 Kpt  Band  Eigenvalues  Occupancy
  0   142     -0.46838    0.27172
  0   143     -0.45461    0.09859
  0   144     -0.38615    0.00012
  0   145     -0.31424    0.00000

  1   142     -0.52521    0.66338
  1   143     -0.49487    0.60450
  1   144     -0.44524    0.04247
  1   145     -0.35035    0.00000

No gap

Forces in eV/Ang:
  0 Li   -0.00795   -0.06927   -0.25760
  1 Li    0.00002    0.00001   -0.01870
  2 Li   -0.00000    0.00008   -0.01870
  3 Li   -0.00001    0.00003   -0.01870
  4 Li    0.00002   -0.00000   -0.01871
  5 Li   -0.00002    0.00000   -0.02126
  6 Li   -0.00001   -0.00003   -0.01874
  7 Li    0.00003   -0.00005   -0.01871
  8 Li   -0.00001   -0.00002   -0.01879
  9 Li   -0.00001   -0.00002   -0.01885
 10 Li   -0.00627    0.00233   -0.00777
 11 Li   -0.00695    0.00223   -0.00769
 12 Li   -0.00636    0.00214   -0.00775
 13 Li    0.00608   -0.00172   -0.00770
 14 Li    0.00668   -0.00217   -0.00801
 15 Li    0.00598   -0.00191   -0.00772
 16 Li   -0.00590    0.00176   -0.00773
 17 Li   -0.00685    0.00188   -0.00801
 18 Li   -0.00599    0.00157   -0.00804
 19 Li    0.00645   -0.00192   -0.00772
 20 Li    0.00677   -0.00226   -0.00807
 21 Li    0.00635   -0.00216   -0.00807
 22 Li   -0.00604    0.00222   -0.00776
 23 Li   -0.00707    0.00234   -0.00775
 24 Li   -0.00645    0.00218   -0.00810
 25 Li    0.00659   -0.00205   -0.00777
 26 Li    0.00682   -0.00234   -0.00776
 27 Li    0.00616   -0.00206   -0.00779
 28 Li   -0.00022   -0.00043   -0.00489
 29 Li    0.00023   -0.00039   -0.00490
 30 Li    0.00001    0.00018   -0.00461
 31 Li   -0.00063   -0.00015   -0.00482
 32 Li   -0.00006   -0.00020   -0.00111
 33 Li    0.00066   -0.00013   -0.00481
 34 Li    0.00004   -0.00001   -0.00462
 35 Li   -0.00041    0.00057   -0.00476
 36 Li    0.00037    0.00055   -0.00471
 37 Li   -0.00053    0.00135    0.01337
 38 Li   -0.00024    0.00040    0.01427
 39 Li    0.00142    0.00110    0.01333
 40 Li   -0.00059    0.00005    0.01426
 41 Li   -0.00007   -0.00268    0.01620
 42 Li   -0.00085   -0.00019    0.01426
 43 Li    0.00091   -0.00113    0.01288
 44 Li   -0.00219   -0.00105    0.01638
 45 Li    0.00279   -0.00134    0.01645
 46 Li   -0.00026    0.00109    0.01328
 47 Li   -0.00200    0.00047    0.01675
 48 Li    0.00158    0.00052    0.01686
 49 Li    0.00095    0.00017    0.01469
 50 Li   -0.00052    0.00022    0.01455
 51 Li    0.00026    0.00236    0.01688
 52 Li    0.00102   -0.00057    0.01323
 53 Li   -0.00105   -0.00087    0.01307
 54 Li   -0.00064    0.00010    0.01494
 55 Li   -0.00002    0.00007    0.00186
 56 Li    0.00002    0.00014    0.00198
 57 Li   -0.00002   -0.00008    0.00443
 58 Li    0.00031    0.00029    0.00247
 59 Li    0.00018    0.00163    0.05898
[...]
130 N    -0.00208   -0.00152   -0.01225
131 N    -0.00109   -0.00711    0.01514
132 N     0.00340   -0.00216   -0.01670
133 N    -0.00006    0.00040    0.00733
134 N    -0.00572    0.00517   -0.02749
135 N     0.00528    0.00620   -0.02897
136 N     0.00887    0.03203    0.02191
137 N    -0.00491    0.03844    0.02408
138 N     0.00072   -0.01258    0.03378
139 N     0.06221    0.03451    0.01652
140 N     0.00593    0.04824    0.00463
141 N    -0.07563    0.03828    0.01049
142 N    -0.00163   -0.00402    0.03125
143 N     0.07787   -0.07224   -0.03095
144 N    -0.06759   -0.07604   -0.04972

System changes: positions

Initializing position-dependent things.

Density initialized from wave functions

            Li      Li     Lii
           Li  N   Li   N  Li   N
              Li  N   Li  N    Li N
             LiLiLi  Li LLi   LiLLi
               Li   N        N  Li   N
            Li N  LiLi  LiLiLi  N  Li
           Li      Li      Li
              Li  N LiLi  N  LiLi N  Li
             LiLiLi  Li LLi   LiLLi
               Li   N   Li   N  Li   N
            Li N  LiLi  N LiLi  N Li
           Li Li   LLiLi   LiLiLi    Li
                  N       N       N
             LiLiLi  Li LLi   LiLLi
            Li Li LiNi  LiLiLN  LiLi N
               N        N       N
           Li Li   LLiLi   LiLiLi    Li
             LiLi N  Li LiN   LiLiN
                 Li N    Li  N   Li  N
               Li Li    LiLi    LiLi

                    Li       Li      Li

Positions:
   0 Li     3.499405    4.441001   24.431516    ( 0.0000,  0.0000,  0.0000)
   1 Li     1.717695    0.991763    8.714294    ( 0.0000,  0.0000,  0.0000)
   2 Li     5.153197    0.991763    8.714294    ( 0.0000,  0.0000,  0.0000)
   3 Li     8.588596    0.991763    8.714294    ( 0.0000,  0.0000,  0.0000)
   4 Li    -0.000071    3.967140    8.714294    ( 0.0000,  0.0000,  0.0000)
   5 Li     3.435431    3.967140    8.714294    ( 0.0000,  0.0000,  0.0000)
   6 Li     6.870830    3.967140    8.714294    ( 0.0000,  0.0000,  0.0000)
   7 Li    -1.717786    6.942428    8.714294    ( 0.0000,  0.0000,  0.0000)
   8 Li     1.717717    6.942428    8.714294    ( 0.0000,  0.0000,  0.0000)
   9 Li     5.153115    6.942428    8.714294    ( 0.0000,  0.0000,  0.0000)
  10 Li     0.000000    0.000000   10.653504    ( 0.0000,  0.0000,  0.0000)
  11 Li     3.435502    0.000000   10.653504    ( 0.0000,  0.0000,  0.0000)
  12 Li     6.870901    0.000000   10.653504    ( 0.0000,  0.0000,  0.0000)
  13 Li    -0.000010    1.983525   10.653504    ( 0.0000,  0.0000,  0.0000)
  14 Li     3.435389    1.983525   10.653504    ( 0.0000,  0.0000,  0.0000)
  15 Li     6.870891    1.983525   10.653504    ( 0.0000,  0.0000,  0.0000)
  16 Li    -1.717766    2.975377   10.653504    ( 0.0000,  0.0000,  0.0000)
  17 Li     1.717736    2.975377   10.653504    ( 0.0000,  0.0000,  0.0000)
  18 Li     5.153135    2.975377   10.653504    ( 0.0000,  0.0000,  0.0000)
  19 Li    -1.717776    4.958903   10.653504    ( 0.0000,  0.0000,  0.0000)
  20 Li     1.717623    4.958903   10.653504    ( 0.0000,  0.0000,  0.0000)
  21 Li     5.153125    4.958903   10.653504    ( 0.0000,  0.0000,  0.0000)
  22 Li    -3.435480    5.950666   10.653504    ( 0.0000,  0.0000,  0.0000)
  23 Li     0.000022    5.950666   10.653504    ( 0.0000,  0.0000,  0.0000)
  24 Li     3.435421    5.950666   10.653504    ( 0.0000,  0.0000,  0.0000)
  25 Li    -3.435490    7.934191   10.653504    ( 0.0000,  0.0000,  0.0000)
  26 Li    -0.000091    7.934191   10.653504    ( 0.0000,  0.0000,  0.0000)
  27 Li     3.435411    7.934191   10.653504    ( 0.0000,  0.0000,  0.0000)
  28 Li     1.717695    0.991763   12.627088    ( 0.0000,  0.0000,  0.0000)
  29 Li     5.153197    0.991763   12.627088    ( 0.0000,  0.0000,  0.0000)
  30 Li     8.588596    0.991763   12.627088    ( 0.0000,  0.0000,  0.0000)
  31 Li    -0.000071    3.967140   12.627088    ( 0.0000,  0.0000,  0.0000)
  32 Li     3.435431    3.967140   12.627088    ( 0.0000,  0.0000,  0.0000)
  33 Li     6.870830    3.967140   12.627088    ( 0.0000,  0.0000,  0.0000)
  34 Li    -1.717786    6.942428   12.627088    ( 0.0000,  0.0000,  0.0000)
  35 Li     1.717717    6.942428   12.627088    ( 0.0000,  0.0000,  0.0000)
  36 Li     5.153115    6.942428   12.627088    ( 0.0000,  0.0000,  0.0000)
  37 Li     0.000000    0.000000   14.576373    ( 0.0000,  0.0000,  0.0000)
  38 Li     3.435502    0.000000   14.576373    ( 0.0000,  0.0000,  0.0000)
  39 Li     6.870901    0.000000   14.576373    ( 0.0000,  0.0000,  0.0000)
  40 Li    -0.000010    1.983525   14.576373    ( 0.0000,  0.0000,  0.0000)
  41 Li     3.435389    1.983525   14.576373    ( 0.0000,  0.0000,  0.0000)
  42 Li     6.870891    1.983525   14.576373    ( 0.0000,  0.0000,  0.0000)
  43 Li    -1.717766    2.975377   14.576373    ( 0.0000,  0.0000,  0.0000)
  44 Li     1.717736    2.975377   14.576373    ( 0.0000,  0.0000,  0.0000)
  45 Li     5.153135    2.975377   14.576373    ( 0.0000,  0.0000,  0.0000)
  46 Li    -1.717776    4.958903   14.576373    ( 0.0000,  0.0000,  0.0000)
  47 Li     1.717623    4.958903   14.576373    ( 0.0000,  0.0000,  0.0000)
  48 Li     5.153125    4.958903   14.576373    ( 0.0000,  0.0000,  0.0000)
  49 Li    -3.435480    5.950666   14.576373    ( 0.0000,  0.0000,  0.0000)
  50 Li     0.000022    5.950666   14.576373    ( 0.0000,  0.0000,  0.0000)
  51 Li     3.435421    5.950666   14.576373    ( 0.0000,  0.0000,  0.0000)
  52 Li    -3.435490    7.934191   14.576373    ( 0.0000,  0.0000,  0.0000)
  53 Li    -0.000091    7.934191   14.576373    ( 0.0000,  0.0000,  0.0000)
  54 Li     3.435411    7.934191   14.576373    ( 0.0000,  0.0000,  0.0000)
  55 Li     1.716933    0.990355   16.539575    ( 0.0000,  0.0000,  0.0000)
  56 Li     5.153935    0.990309   16.539618    ( 0.0000,  0.0000,  0.0000)
  57 Li     8.588601    0.992155   16.538968    ( 0.0000,  0.0000,  0.0000)
  58 Li    -0.001983    3.966929   16.540287    ( 0.0000,  0.0000,  0.0000)
  59 Li     3.435377    3.966894   16.560332    ( 0.0000,  0.0000,  0.0000)
[...]
 130 N     -0.001322    3.967040   18.474735    ( 0.0000,  0.0000,  0.0000)
 131 N      3.435355    3.966613   18.536742    ( 0.0000,  0.0000,  0.0000)
 132 N      6.872182    3.966963   18.475514    ( 0.0000,  0.0000,  0.0000)
 133 N     -1.717732    6.942420   18.473624    ( 0.0000,  0.0000,  0.0000)
 134 N      1.716681    6.943805   18.480006    ( 0.0000,  0.0000,  0.0000)
 135 N      5.154063    6.943841   18.481860    ( 0.0000,  0.0000,  0.0000)
 136 N      1.721156    0.997675   22.381054    ( 0.0000,  0.0000,  0.0000)
 137 N      5.149851    0.997090   22.380742    ( 0.0000,  0.0000,  0.0000)
 138 N      8.588277    0.992020   22.385375    ( 0.0000,  0.0000,  0.0000)
 139 N     -0.001773    3.966457   22.376780    ( 0.0000,  0.0000,  0.0000)
 140 N      3.439442    3.997974   22.569307    ( 0.0000,  0.0000,  0.0000)
 141 N      6.875599    3.965989   22.374909    ( 0.0000,  0.0000,  0.0000)
 142 N     -1.717509    6.943772   22.384966    ( 0.0000,  0.0000,  0.0000)
 143 N      1.713833    6.948997   22.372840    ( 0.0000,  0.0000,  0.0000)
 144 N      5.155981    6.948014   22.374268    ( 0.0000,  0.0000,  0.0000)

Unit cell:
           periodic     x           y           z      points  spacing
  1. axis:    yes   10.306300    0.000000    0.000000    54     0.1653
  2. axis:    yes   -5.153194    8.925954    0.000000    54     0.1653
  3. axis:    yes    0.000000    0.000000   29.633400   147     0.2016

  Lengths:  10.306300  10.306700  29.633400
  Angles:   90.000000  90.000000 119.999001

Effective grid spacing dv^(1/3) = 0.1853

                     log10-error:    total        iterations:
           time      wfs    density  energy       fermi  poisson
iter:   1  23:07:08  -3.61         -503.108019    3
iter:   2  23:07:20  -4.55  -2.70  -503.144239    4
iter:   3  23:07:33  -5.23  -2.26  -503.106504    4
iter:   4  23:07:46  -5.92  -2.99  -503.106598    2
iter:   5  23:07:58  -5.26  -2.97  -503.105079    3
iter:   6  23:08:11  -5.25  -3.17  -503.105801    3
iter:   7  23:08:23  -6.15  -2.75  -503.104955    3
iter:   8  23:08:36  -6.42  -3.22  -503.103710    3
iter:   9  23:08:48  -6.31  -3.24  -503.103665    3