User:   jywang@lbnode02
Date:   Sun Jul 25 23:09:54 2021
Arch:   x86_64
Pid:    40794
Python: 3.7.7
gpaw:   /home/jywang/intel/intelpython3/lib/python3.7/site-packages/gpaw
_gpaw:  /home/jywang/intel/intelpython3/lib/python3.7/site-packages/
        _gpaw.cpython-37m-x86_64-linux-gnu.so
ase:    /home/jywang/intel/intelpython3/lib/python3.7/site-packages/ase (version 3.19.0)
numpy:  /home/jywang/intel/intelpython3/lib/python3.7/site-packages/numpy (version 1.17.5)
scipy:  /home/jywang/intel/intelpython3/lib/python3.7/site-packages/scipy (version 1.3.3)
units:  Angstrom and eV
cores: 32
OMP_NUM_THREADS: 1

Input parameters:
  convergence: {eigenstates: 1e-08}
  kpts: [3 3 1]
  mode: {ecut: 450.00000000000006,
         gammacentered: False,
         name: pw}
  occupations: {name: fermi-dirac,
                width: 0.01}
  random: True
  xc: PBE

System changes: positions, numbers, cell, pbc, initial_charges, initial_magmoms

Initialize ...

Li-setup:
  name: Lithium
  id: 830b4218f175192f93f959cfc0aad614
  Z: 3
  valence: 1
  core: 2
  charge: 0.0
  file: /home/jywang/gpaw_paws/gpaw-setups-0.9.20000/Li.PBE.gz
  compensation charges: gauss, rc=0.33, lmax=2
  cutoffs: 1.91(filt), 2.55(core),
  valence states:
                energy  radius
    2s(1.00)    -2.874   1.058
    2p(0.00)    -1.090   1.058
    *s          24.337   1.058

  Using partial waves for Li as LCAO basis

N-setup:
  name: Nitrogen
  id: f7500608b86eaa90eef8b1d9a670dc53
  Z: 7
  valence: 5
  core: 2
  charge: 0.0
  file: /home/jywang/gpaw_paws/gpaw-setups-0.9.20000/N.PBE.gz
  compensation charges: gauss, rc=0.18, lmax=2
  cutoffs: 1.11(filt), 0.96(core),
  valence states:
                energy  radius
    2s(2.00)   -18.583   0.603
    2p(3.00)    -7.089   0.529
    *s           8.629   0.603
    *p          20.123   0.529
    *d           0.000   0.577

  Using partial waves for N as LCAO basis

Reference energy: -75445.846558

Spin-paired calculation

Occupation numbers:
  Fermi-Dirac: width=0.0100 eV

Convergence criteria:
  Maximum total energy change: 0.0005 eV / electron
  Maximum integral of absolute density change: 0.0001 electrons
  Maximum integral of absolute eigenstate change: 1e-08 eV^2
  Maximum number of iterations: 333

Symmetries present (total): 1

  ( 1  0  0)
  ( 0  1  0)
  ( 0  0  1)

9 k-points: 3 x 3 x 1 Monkhorst-Pack grid
5 k-points in the irreducible part of the Brillouin zone
       k-points in crystal coordinates                weights
   0:     0.00000000    0.00000000    0.00000000          1/9
   1:     0.00000000    0.33333333    0.00000000          2/9
   2:     0.33333333   -0.33333333    0.00000000          2/9
   3:     0.33333333    0.00000000    0.00000000          2/9
   4:     0.33333333    0.33333333    0.00000000          2/9

Wave functions: Plane wave expansion
  Cutoff energy: 450.000 eV
  Number of coefficients (min, max): 59082, 59119
  Pulay-stress correction: 0.000000 eV/Ang^3 (de/decut=0.000000)
  Using FFTW library
  ScaLapack parameters: grid=1x1, blocksize=None
  Wavefunction extrapolation:
    Improved wavefunction reuse through dual PAW basis

Eigensolver
   Davidson(niter=2, smin=None, normalize=True)

Densities:
  Coarse grid: 54*54*147 grid
  Fine grid: 108*108*294 grid
  Total Charge: 0.000000

Density mixing:
  Method: separate
  Backend: pulay
  Linear mixing parameter: 0.05
  Mixing with 5 old densities
  Damping of long wave oscillations: 50

Hamiltonian:
  XC and Coulomb potentials evaluated on a 108*108*294 grid
  Using the PBE Exchange-Correlation functional

XC parameters: PBE with 2 nearest neighbor stencil

Total number of cores used: 32
Domain decomposition: 2 x 2 x 8

Number of atoms: 145
Number of atomic orbitals: 580
Number of bands in calculation: 178
Number of valence electrons: 289
Bands to converge: occupied

... initialized

Initializing position-dependent things.

Density initialized from atomic densities
Creating initial wave functions:
  178 bands from LCAO basis set

            Li      Li     Lii
           Li  N   Li   N  Li   N
              Li  N   Li  N    Li N
             LiLiLi  Li LLi   LiLLi
               Li   N        N  Li   N
            Li N  LiLi  LiLiLi  N  Li
           Li      Li      Li
              Li  N LiLi  N  LiLi N  Li
             LiLiLi  Li LLi   LiLLi
               Li   N   Li   N  Li   N
            Li N  LiLi  N LiLi  N Li
           Li Li   LLiLi   LiLiLi    Li
                  N       N       N
             LiLiLi  Li LLi   LiLLi
            Li Li LiNi  LiLiLN  LiLi N
               N        N       N
           Li Li   LLiLi   LiLiLi    Li
             LiLi N  Li LiN   LiLiN
                 Li N    Li  N   Li  N
               Li Li    LiLi    LiLi

                    Li       Li      Li

Positions:
   0 Li     3.500100    4.446747   24.432627    ( 0.0000,  0.0000,  0.0000)
   1 Li     1.717695    0.991763    8.714294    ( 0.0000,  0.0000,  0.0000)
   2 Li     5.153197    0.991763    8.714294    ( 0.0000,  0.0000,  0.0000)
   3 Li     8.588596    0.991763    8.714294    ( 0.0000,  0.0000,  0.0000)
   4 Li    -0.000071    3.967140    8.714294    ( 0.0000,  0.0000,  0.0000)
   5 Li     3.435431    3.967140    8.714294    ( 0.0000,  0.0000,  0.0000)
   6 Li     6.870830    3.967140    8.714294    ( 0.0000,  0.0000,  0.0000)
   7 Li    -1.717786    6.942428    8.714294    ( 0.0000,  0.0000,  0.0000)
   8 Li     1.717717    6.942428    8.714294    ( 0.0000,  0.0000,  0.0000)
   9 Li     5.153115    6.942428    8.714294    ( 0.0000,  0.0000,  0.0000)
  10 Li     0.000000    0.000000   10.653504    ( 0.0000,  0.0000,  0.0000)
  11 Li     3.435502    0.000000   10.653504    ( 0.0000,  0.0000,  0.0000)
  12 Li     6.870901    0.000000   10.653504    ( 0.0000,  0.0000,  0.0000)
  13 Li    -0.000010    1.983525   10.653504    ( 0.0000,  0.0000,  0.0000)
  14 Li     3.435389    1.983525   10.653504    ( 0.0000,  0.0000,  0.0000)
  15 Li     6.870891    1.983525   10.653504    ( 0.0000,  0.0000,  0.0000)
  16 Li    -1.717766    2.975377   10.653504    ( 0.0000,  0.0000,  0.0000)
  17 Li     1.717736    2.975377   10.653504    ( 0.0000,  0.0000,  0.0000)
  18 Li     5.153135    2.975377   10.653504    ( 0.0000,  0.0000,  0.0000)
  19 Li    -1.717776    4.958903   10.653504    ( 0.0000,  0.0000,  0.0000)
  20 Li     1.717623    4.958903   10.653504    ( 0.0000,  0.0000,  0.0000)
  21 Li     5.153125    4.958903   10.653504    ( 0.0000,  0.0000,  0.0000)
  22 Li    -3.435480    5.950666   10.653504    ( 0.0000,  0.0000,  0.0000)
  23 Li     0.000022    5.950666   10.653504    ( 0.0000,  0.0000,  0.0000)
  24 Li     3.435421    5.950666   10.653504    ( 0.0000,  0.0000,  0.0000)
  25 Li    -3.435490    7.934191   10.653504    ( 0.0000,  0.0000,  0.0000)
  26 Li    -0.000091    7.934191   10.653504    ( 0.0000,  0.0000,  0.0000)
  27 Li     3.435411    7.934191   10.653504    ( 0.0000,  0.0000,  0.0000)
  28 Li     1.717695    0.991763   12.627088    ( 0.0000,  0.0000,  0.0000)
  29 Li     5.153197    0.991763   12.627088    ( 0.0000,  0.0000,  0.0000)
  30 Li     8.588596    0.991763   12.627088    ( 0.0000,  0.0000,  0.0000)
  31 Li    -0.000071    3.967140   12.627088    ( 0.0000,  0.0000,  0.0000)
  32 Li     3.435431    3.967140   12.627088    ( 0.0000,  0.0000,  0.0000)
  33 Li     6.870830    3.967140   12.627088    ( 0.0000,  0.0000,  0.0000)
  34 Li    -1.717786    6.942428   12.627088    ( 0.0000,  0.0000,  0.0000)
  35 Li     1.717717    6.942428   12.627088    ( 0.0000,  0.0000,  0.0000)
  36 Li     5.153115    6.942428   12.627088    ( 0.0000,  0.0000,  0.0000)
  37 Li     0.000000    0.000000   14.576373    ( 0.0000,  0.0000,  0.0000)
  38 Li     3.435502    0.000000   14.576373    ( 0.0000,  0.0000,  0.0000)
  39 Li     6.870901    0.000000   14.576373    ( 0.0000,  0.0000,  0.0000)
  40 Li    -0.000010    1.983525   14.576373    ( 0.0000,  0.0000,  0.0000)
  41 Li     3.435389    1.983525   14.576373    ( 0.0000,  0.0000,  0.0000)
  42 Li     6.870891    1.983525   14.576373    ( 0.0000,  0.0000,  0.0000)
  43 Li    -1.717766    2.975377   14.576373    ( 0.0000,  0.0000,  0.0000)
  44 Li     1.717736    2.975377   14.576373    ( 0.0000,  0.0000,  0.0000)
  45 Li     5.153135    2.975377   14.576373    ( 0.0000,  0.0000,  0.0000)
  46 Li    -1.717776    4.958903   14.576373    ( 0.0000,  0.0000,  0.0000)
  47 Li     1.717623    4.958903   14.576373    ( 0.0000,  0.0000,  0.0000)
  48 Li     5.153125    4.958903   14.576373    ( 0.0000,  0.0000,  0.0000)
  49 Li    -3.435480    5.950666   14.576373    ( 0.0000,  0.0000,  0.0000)
  50 Li     0.000022    5.950666   14.576373    ( 0.0000,  0.0000,  0.0000)
  51 Li     3.435421    5.950666   14.576373    ( 0.0000,  0.0000,  0.0000)
  52 Li    -3.435490    7.934191   14.576373    ( 0.0000,  0.0000,  0.0000)
  53 Li    -0.000091    7.934191   14.576373    ( 0.0000,  0.0000,  0.0000)
  54 Li     3.435411    7.934191   14.576373    ( 0.0000,  0.0000,  0.0000)
  55 Li     1.717014    0.990502   16.539692    ( 0.0000,  0.0000,  0.0000)
  56 Li     5.153856    0.990460   16.539720    ( 0.0000,  0.0000,  0.0000)
  57 Li     8.588601    0.992115   16.539034    ( 0.0000,  0.0000,  0.0000)
  58 Li    -0.001798    3.966938   16.540281    ( 0.0000,  0.0000,  0.0000)
  59 Li     3.435372    3.966839   16.555534    ( 0.0000,  0.0000,  0.0000)
[...]
 130 N     -0.000882    3.967136   18.475357    ( 0.0000,  0.0000,  0.0000)
 131 N      3.435398    3.966957   18.531522    ( 0.0000,  0.0000,  0.0000)
 132 N      6.871683    3.967083   18.476275    ( 0.0000,  0.0000,  0.0000)
 133 N     -1.717742    6.942402   18.473165    ( 0.0000,  0.0000,  0.0000)
 134 N      1.717133    6.943277   18.480871    ( 0.0000,  0.0000,  0.0000)
 135 N      5.153631    6.943269   18.482613    ( 0.0000,  0.0000,  0.0000)
 136 N      1.721086    0.996489   22.381615    ( 0.0000,  0.0000,  0.0000)
 137 N      5.149743    0.995748   22.381345    ( 0.0000,  0.0000,  0.0000)
 138 N      8.588197    0.992406   22.384121    ( 0.0000,  0.0000,  0.0000)
 139 N     -0.002929    3.964835   22.379273    ( 0.0000,  0.0000,  0.0000)
 140 N      3.439920    4.001247   22.585411    ( 0.0000,  0.0000,  0.0000)
 141 N      6.876695    3.964165   22.378533    ( 0.0000,  0.0000,  0.0000)
 142 N     -1.717426    6.943760   22.383874    ( 0.0000,  0.0000,  0.0000)
 143 N      1.712933    6.947840   22.381602    ( 0.0000,  0.0000,  0.0000)
 144 N      5.156036    6.946398   22.384695    ( 0.0000,  0.0000,  0.0000)

Unit cell:
           periodic     x           y           z      points  spacing
  1. axis:    yes   10.306300    0.000000    0.000000    54     0.1653
  2. axis:    yes   -5.153194    8.925954    0.000000    54     0.1653
  3. axis:    yes    0.000000    0.000000   29.633400   147     0.2016

  Lengths:  10.306300  10.306700  29.633400
  Angles:   90.000000  90.000000 119.999001

Effective grid spacing dv^(1/3) = 0.1853

                     log10-error:    total        iterations:
           time      wfs    density  energy       fermi  poisson
iter:   1  23:11:18                -595.528101    3
iter:   2  23:11:38  -0.96  -0.51  -566.937014    5
iter:   3  23:11:58  -1.21  -0.60  -549.970250    35
[...]
  4 Li    0.00005   -0.00003   -0.02457
  5 Li   -0.00002   -0.00000   -0.02710
  6 Li   -0.00003   -0.00001   -0.02459
  7 Li    0.00002   -0.00003   -0.02457
  8 Li    0.00000   -0.00000   -0.02465
  9 Li   -0.00002   -0.00002   -0.02469
 10 Li   -0.00004    0.00020   -0.00957
 11 Li   -0.00072    0.00012   -0.00950
 12 Li   -0.00013    0.00001   -0.00956
 13 Li   -0.00013    0.00041   -0.00950
 14 Li    0.00045   -0.00004   -0.00976
 15 Li   -0.00026    0.00022   -0.00951
 16 Li    0.00033   -0.00037   -0.00954
 17 Li   -0.00062   -0.00025   -0.00976
 18 Li    0.00023   -0.00054   -0.00976
 19 Li    0.00022    0.00020   -0.00953
 20 Li    0.00056   -0.00014   -0.00980
 21 Li    0.00011   -0.00004   -0.00981
 22 Li    0.00017    0.00010   -0.00956
 23 Li   -0.00083    0.00021   -0.00955
 24 Li   -0.00022    0.00005   -0.00984
 25 Li    0.00035    0.00008   -0.00958
 26 Li    0.00059   -0.00021   -0.00957
 27 Li   -0.00006    0.00005   -0.00958
 28 Li   -0.00021   -0.00041   -0.01497
 29 Li    0.00023   -0.00037   -0.01496
 30 Li    0.00000    0.00017   -0.01473
 31 Li   -0.00059   -0.00015   -0.01488
 32 Li   -0.00006   -0.00020   -0.01130
 33 Li    0.00062   -0.00013   -0.01486
 34 Li    0.00005   -0.00001   -0.01474
 35 Li   -0.00041    0.00056   -0.01480
 36 Li    0.00036    0.00053   -0.01476
 37 Li   -0.00092    0.00099    0.00986
 38 Li   -0.00073    0.00013    0.01078
 39 Li    0.00075    0.00074    0.00987
 40 Li   -0.00007    0.00037    0.01077
 41 Li    0.00047   -0.00229    0.01269
 42 Li   -0.00036    0.00013    0.01079
 43 Li    0.00038   -0.00127    0.00940
 44 Li   -0.00263   -0.00127    0.01289
 45 Li    0.00219   -0.00159    0.01298
 46 Li    0.00025    0.00120    0.00978
 47 Li   -0.00140    0.00071    0.01325
 48 Li    0.00204    0.00074    0.01333
 49 Li    0.00040   -0.00012    0.01115
 50 Li   -0.00099   -0.00004    0.01102
 51 Li   -0.00029    0.00199    0.01330
 52 Li    0.00142   -0.00023    0.00972
 53 Li   -0.00040   -0.00052    0.00962
 54 Li   -0.00014    0.00035    0.01134
 55 Li    0.00009    0.00026   -0.01128
 56 Li   -0.00001    0.00024   -0.01099
 57 Li   -0.00007   -0.00006   -0.00857
 58 Li    0.00047    0.00030   -0.01054
 59 Li    0.00019    0.00154    0.04567
[...]
130 N    -0.00262   -0.00195   -0.00026
131 N    -0.00121   -0.00740    0.02237
132 N     0.00406   -0.00200   -0.00513
133 N    -0.00008    0.00091    0.02892
134 N    -0.00611    0.00600   -0.01555
135 N     0.00628    0.00788   -0.01695
136 N    -0.00234    0.02312    0.02504
137 N     0.00385    0.02896    0.02768
138 N     0.00875   -0.00493    0.06183
139 N     0.06123    0.03193    0.01815
140 N     0.00595    0.04262   -0.01556
141 N    -0.07171    0.04253    0.01043
142 N    -0.00581    0.00403    0.05736
143 N     0.06901   -0.06123   -0.03027
144 N    -0.05339   -0.06198   -0.04923

System changes: positions

[...]

Density initialized from wave functions

            Li      Li     Lii
           Li  N   Li   N  Li   N
              Li  N   Li  N    Li N
             LiLiLi  Li LLi   LiLLi
               Li   N        N  Li   N
            Li N  LiLi  LiLiLi  N  Li
           Li      Li      Li
              Li  N LiLi  N  LiLi N  Li
             LiLiLi  Li LLi   LiLLi
               Li   N   Li   N  Li   N
            Li N  LiLi  N LiLi  N Li
           Li Li   LLiLi   LiLiLi    Li
                  N       N       N
             LiLiLi  Li LLi   LiLLi
            Li Li LiNi  LiLiLN  LiLi N
               N        N       N
           Li Li   LLiLi   LiLiLi    Li
             LiLi N  Li LiN   LiLiN
                 Li N    Li  N   Li  N
               Li Li    LiLi    LiLi

[...]

            Li      Li     Lii
           Li  N   Li   N  Li   N
              Li  N   Li  N    Li N
             LiLiLi  Li LLi   LiLLi
               Li   N   Li   N  Li   N
            Li N  LiLi  N LiLi  N  Li
           Li      LLi     LiLi      Li
              Li  N   Li  N    Li N
             LiLiLi  Li LLi   LiLLi
               Li   N   LiLi N  Li   N
            Li N  LiLi  N   Li  N Li
           Li Li   LLiLi   LiLiLi    Li
             Li   N  Li   N   Li  N
               LiLi     LLi     LLi
            Li Li LiNi  LiLiLN  LiLi N
               N        N       N
           Li Li   LLiLi   LiLiLi    Li
             LiLi N  Li LiN   LiLiN
                 Li N    Li  N   Li  N
               Li Li    LiLi    LiLi

[...]

            Li      Li     Lii
           Li  N   Li   N  Li   N
              Li  N   Li  N    Li N
             LiLiLi  Li LLi   LiLLi
               Li   N   Li   N  Li   N
            Li N  LiLi  N LiLi  N  Li
           Li      LLi     LiLi      Li
              Li  N   Li  N    Li N
             LiLiLi  Li LLi   LiLLi
               Li   N   LiLi N  Li   N
            Li N  LiLi  N   Li  N Li
           Li Li   LLiLi   LiLiLi    Li
             Li   N  Li   N   Li  N
               LiLi     LLi     LLi
            Li Li LiNi  LiLiLN  LiLi N
               N        N       N
           Li Li   LLiLi   LiLiLi    Li
             LiLi N  Li LiN   LiLiN
                 Li N    Li  N   Li  N
               Li Li    LiLi    LiLi

[...]

Converged after 12 iterations.

Dipole moment: (-3.920874, 2.385857, 0.035219) |e|*Ang

Energy contributions relative to reference atoms: (reference = -75445.846558)

Kinetic:       +600.158172
Potential:     -407.346600
External:        +0.000000
XC:            -692.682169
Entropy (-ST):   -0.019099
Local:           -3.341827
Free energy:   -503.231523
Extrapolated:  -503.221973

Fermi level: -0.54103

Showing only first 2 kpts
 Kpt  Band  Eigenvalues  Occupancy
  0   142     -0.43510    0.00001
  0   143     -0.27309    0.00000
  0   144     -0.26803    0.00000
  0   145      0.06465    0.00000

  1   142     -0.56681    0.41310
  1   143     -0.56185    0.39521
  1   144     -0.53768    0.18540
  1   145     -0.42571    0.00000

No gap

Forces in eV/Ang:
  0 Li    0.00094   -0.00304    0.04903
  1 Li    0.00002    0.00002   -0.02456
  2 Li   -0.00001    0.00006   -0.02456
  3 Li    0.00000    0.00002   -0.02465
  4 Li    0.00004   -0.00003   -0.02454
  5 Li   -0.00002   -0.00001   -0.02698
  6 Li   -0.00002   -0.00001   -0.02455
  7 Li    0.00002   -0.00002   -0.02465
  8 Li   -0.00000    0.00001   -0.02457
  9 Li   -0.00001   -0.00001   -0.02459
 10 Li    0.00001    0.00009   -0.01013
 11 Li   -0.00072    0.00015   -0.01014
 12 Li   -0.00018   -0.00009   -0.01012
 13 Li   -0.00012    0.00044   -0.01012
 14 Li    0.00045    0.00014   -0.01024
 15 Li   -0.00028    0.00027   -0.01012
 16 Li    0.00032   -0.00028   -0.01011
 17 Li   -0.00048   -0.00015   -0.01022
 18 Li    0.00011   -0.00044   -0.01021
 19 Li    0.00021    0.00011   -0.01011
 20 Li    0.00069   -0.00017   -0.01019
 21 Li   -0.00000   -0.00006   -0.01018
 22 Li    0.00008    0.00010   -0.01009
 23 Li   -0.00074    0.00022   -0.01010
 24 Li   -0.00021   -0.00004   -0.01017
 25 Li    0.00023    0.00007   -0.01013
 26 Li    0.00071   -0.00022   -0.01013
 27 Li   -0.00005   -0.00005   -0.01008
 28 Li   -0.00012   -0.00019   -0.01543
 29 Li    0.00015   -0.00012   -0.01540
 30 Li    0.00000    0.00005   -0.01521
 31 Li   -0.00023   -0.00004   -0.01525
 32 Li   -0.00002    0.00006   -0.00898
 33 Li    0.00022   -0.00001   -0.01517
 34 Li    0.00003   -0.00009   -0.01524
 35 Li   -0.00009    0.00019   -0.01488
 36 Li    0.00006    0.00013   -0.01475
 37 Li   -0.00048   -0.00046    0.00826
 38 Li   -0.00069    0.00043    0.00852
 39 Li    0.00027   -0.00051    0.00811
 40 Li    0.00013    0.00085    0.00856
 41 Li    0.00048    0.00168    0.01349
 42 Li   -0.00056    0.00075    0.00861
 43 Li    0.00024   -0.00045    0.00750
 44 Li    0.00058    0.00073    0.01358
 45 Li   -0.00088    0.00042    0.01362
 46 Li    0.00012    0.00029    0.00774
 47 Li    0.00156   -0.00053    0.01372
 48 Li   -0.00079   -0.00038    0.01377
 49 Li   -0.00078    0.00000    0.00940
 50 Li    0.00006    0.00013    0.00913
 51 Li   -0.00017   -0.00077    0.01358
 52 Li   -0.00005   -0.00061    0.00820
 53 Li    0.00090   -0.00078    0.00797
 54 Li    0.00003   -0.00080    0.00975
 55 Li    0.00469    0.00905    0.01110
 56 Li   -0.00467    0.00968    0.01022
 57 Li   -0.00007   -0.00281    0.01521
 58 Li    0.01236    0.00179    0.00523
 59 Li    0.00058    0.00461    0.00514
[...]
130 N    -0.00049    0.00107   -0.00631
131 N    -0.00047   -0.00636    0.03138
132 N     0.00136    0.00053   -0.00830
133 N    -0.00017   -0.00216   -0.00647
134 N    -0.00211    0.00357   -0.02107
135 N     0.00198    0.00288   -0.02567
136 N     0.00337   -0.01097   -0.03383
137 N     0.00384   -0.01889   -0.03361
138 N    -0.01049   -0.02650   -0.00318
139 N    -0.08097   -0.02279   -0.03046
140 N    -0.01275   -0.09481   -0.16633
141 N     0.09877   -0.04432   -0.02676
142 N    -0.00028   -0.01202   -0.00387
143 N    -0.10009    0.09600   -0.01431
144 N     0.07926    0.09783   -0.00830

System changes: positions

Initializing position-dependent things.

Density initialized from wave functions

            Li      Li     Lii
           Li  N   Li   N  Li   N
              Li  N   Li  N    Li N
             LiLiLi  Li LLi   LiLLi
               Li   N   Li   N  Li   N
            Li N  LiLi  N LiLi  N  Li
           Li      LLiLi   LiLiLi    Li
              Li  N       N       N
             LiLiLi  Li LLi   LiLLi
               Li   N   LiLi N  Li   N
            Li N  LiLi  N   Li  N Li
           Li Li   LLiLi   LiLiLi    Li
             Li   N  Li   N   Li  N
               LiLi     LLi     LLi
            Li Li LiNi  LiLiLN  LiLi N
               N        N       N
           Li Li   LLiLi   LiLiLi    Li
             LiLi N  Li LiN   LiLiN
                 Li N    Li  N   Li  N
               Li Li    LiLi    LiLi

                    Li       Li      Li

Positions:
   0 Li     3.497908    4.425664   24.359429    ( 0.0000,  0.0000,  0.0000)
   1 Li     1.717695    0.991763    8.714294    ( 0.0000,  0.0000,  0.0000)
   2 Li     5.153197    0.991763    8.714294    ( 0.0000,  0.0000,  0.0000)
   3 Li     8.588596    0.991763    8.714294    ( 0.0000,  0.0000,  0.0000)
   4 Li    -0.000071    3.967140    8.714294    ( 0.0000,  0.0000,  0.0000)
   5 Li     3.435431    3.967140    8.714294    ( 0.0000,  0.0000,  0.0000)
   6 Li     6.870830    3.967140    8.714294    ( 0.0000,  0.0000,  0.0000)
   7 Li    -1.717786    6.942428    8.714294    ( 0.0000,  0.0000,  0.0000)
   8 Li     1.717717    6.942428    8.714294    ( 0.0000,  0.0000,  0.0000)
   9 Li     5.153115    6.942428    8.714294    ( 0.0000,  0.0000,  0.0000)
  10 Li     0.000000    0.000000   10.653504    ( 0.0000,  0.0000,  0.0000)
  11 Li     3.435502    0.000000   10.653504    ( 0.0000,  0.0000,  0.0000)
  12 Li     6.870901    0.000000   10.653504    ( 0.0000,  0.0000,  0.0000)
  13 Li    -0.000010    1.983525   10.653504    ( 0.0000,  0.0000,  0.0000)
  14 Li     3.435389    1.983525   10.653504    ( 0.0000,  0.0000,  0.0000)
  15 Li     6.870891    1.983525   10.653504    ( 0.0000,  0.0000,  0.0000)
  16 Li    -1.717766    2.975377   10.653504    ( 0.0000,  0.0000,  0.0000)
  17 Li     1.717736    2.975377   10.653504    ( 0.0000,  0.0000,  0.0000)
  18 Li     5.153135    2.975377   10.653504    ( 0.0000,  0.0000,  0.0000)
  19 Li    -1.717776    4.958903   10.653504    ( 0.0000,  0.0000,  0.0000)
  20 Li     1.717623    4.958903   10.653504    ( 0.0000,  0.0000,  0.0000)
  21 Li     5.153125    4.958903   10.653504    ( 0.0000,  0.0000,  0.0000)
  22 Li    -3.435480    5.950666   10.653504    ( 0.0000,  0.0000,  0.0000)
  23 Li     0.000022    5.950666   10.653504    ( 0.0000,  0.0000,  0.0000)
  24 Li     3.435421    5.950666   10.653504    ( 0.0000,  0.0000,  0.0000)
  25 Li    -3.435490    7.934191   10.653504    ( 0.0000,  0.0000,  0.0000)
  26 Li    -0.000091    7.934191   10.653504    ( 0.0000,  0.0000,  0.0000)
  27 Li     3.435411    7.934191   10.653504    ( 0.0000,  0.0000,  0.0000)
  28 Li     1.717695    0.991763   12.627088    ( 0.0000,  0.0000,  0.0000)
  29 Li     5.153197    0.991763   12.627088    ( 0.0000,  0.0000,  0.0000)
  30 Li     8.588596    0.991763   12.627088    ( 0.0000,  0.0000,  0.0000)
  31 Li    -0.000071    3.967140   12.627088    ( 0.0000,  0.0000,  0.0000)
  32 Li     3.435431    3.967140   12.627088    ( 0.0000,  0.0000,  0.0000)
  33 Li     6.870830    3.967140   12.627088    ( 0.0000,  0.0000,  0.0000)
  34 Li    -1.717786    6.942428   12.627088    ( 0.0000,  0.0000,  0.0000)
  35 Li     1.717717    6.942428   12.627088    ( 0.0000,  0.0000,  0.0000)
  36 Li     5.153115    6.942428   12.627088    ( 0.0000,  0.0000,  0.0000)
  37 Li     0.000000    0.000000   14.576373    ( 0.0000,  0.0000,  0.0000)
  38 Li     3.435502    0.000000   14.576373    ( 0.0000,  0.0000,  0.0000)
  39 Li     6.870901    0.000000   14.576373    ( 0.0000,  0.0000,  0.0000)
  40 Li    -0.000010    1.983525   14.576373    ( 0.0000,  0.0000,  0.0000)
  41 Li     3.435389    1.983525   14.576373    ( 0.0000,  0.0000,  0.0000)
  42 Li     6.870891    1.983525   14.576373    ( 0.0000,  0.0000,  0.0000)
  43 Li    -1.717766    2.975377   14.576373    ( 0.0000,  0.0000,  0.0000)
  44 Li     1.717736    2.975377   14.576373    ( 0.0000,  0.0000,  0.0000)
  45 Li     5.153135    2.975377   14.576373    ( 0.0000,  0.0000,  0.0000)
  46 Li    -1.717776    4.958903   14.576373    ( 0.0000,  0.0000,  0.0000)
  47 Li     1.717623    4.958903   14.576373    ( 0.0000,  0.0000,  0.0000)
  48 Li     5.153125    4.958903   14.576373    ( 0.0000,  0.0000,  0.0000)
  49 Li    -3.435480    5.950666   14.576373    ( 0.0000,  0.0000,  0.0000)
  50 Li     0.000022    5.950666   14.576373    ( 0.0000,  0.0000,  0.0000)
  51 Li     3.435421    5.950666   14.576373    ( 0.0000,  0.0000,  0.0000)
  52 Li    -3.435490    7.934191   14.576373    ( 0.0000,  0.0000,  0.0000)
  53 Li    -0.000091    7.934191   14.576373    ( 0.0000,  0.0000,  0.0000)
  54 Li     3.435411    7.934191   14.576373    ( 0.0000,  0.0000,  0.0000)
  55 Li     1.717507    0.991481   16.537380    ( 0.0000,  0.0000,  0.0000)
  56 Li     5.153390    0.991500   16.537398    ( 0.0000,  0.0000,  0.0000)
  57 Li     8.588573    0.991810   16.538071    ( 0.0000,  0.0000,  0.0000)
  58 Li    -0.000417    3.967214   16.537547    ( 0.0000,  0.0000,  0.0000)
  59 Li     3.435491    3.967782   16.570205    ( 0.0000,  0.0000,  0.0000)
[...]
 130 N     -0.001827    3.966626   18.473111    ( 0.0000,  0.0000,  0.0000)
 131 N      3.434983    3.964036   18.540378    ( 0.0000,  0.0000,  0.0000)
 132 N      6.873159    3.966499   18.472264    ( 0.0000,  0.0000,  0.0000)
 133 N     -1.717773    6.942490   18.479988    ( 0.0000,  0.0000,  0.0000)
 134 N      1.714951    6.945571   18.472192    ( 0.0000,  0.0000,  0.0000)
 135 N      5.155838    6.946057   18.473026    ( 0.0000,  0.0000,  0.0000)
 136 N      1.720744    1.002284   22.384872    ( 0.0000,  0.0000,  0.0000)
 137 N      5.151390    1.002404   22.385430    ( 0.0000,  0.0000,  0.0000)
 138 N      8.589714    0.987679   22.402570    ( 0.0000,  0.0000,  0.0000)
 139 N      0.006533    3.972000   22.380700    ( 0.0000,  0.0000,  0.0000)
 140 N      3.440339    4.003817   22.561537    ( 0.0000,  0.0000,  0.0000)
 141 N      6.866160    3.972087   22.377949    ( 0.0000,  0.0000,  0.0000)
 142 N     -1.719275    6.943541   22.400848    ( 0.0000,  0.0000,  0.0000)
 143 N      1.722414    6.940226   22.369692    ( 0.0000,  0.0000,  0.0000)
 144 N      5.148919    6.938709   22.367522    ( 0.0000,  0.0000,  0.0000)

Unit cell:
           periodic     x           y           z      points  spacing
  1. axis:    yes   10.306300    0.000000    0.000000    54     0.1653
  2. axis:    yes   -5.153194    8.925954    0.000000    54     0.1653
  3. axis:    yes    0.000000    0.000000   29.633400   147     0.2016

  Lengths:  10.306300  10.306700  29.633400
  Angles:   90.000000  90.000000 119.999001

Effective grid spacing dv^(1/3) = 0.1853

                     log10-error:    total        iterations:
           time      wfs    density  energy       fermi  poisson
iter:   1  23:47:57  -3.18         -503.250059    3
iter:   2  23:48:16  -4.24  -2.85  -503.251391    6
iter:   3  23:48:36  -5.01  -2.46  -503.250224    4
iter:   4  23:48:55  -5.65  -2.92  -503.247613    4
iter:   5  23:49:14  -5.76  -3.04  -503.248119    4
iter:   6  23:49:35  -5.75  -2.60  -503.245625    3
iter:   7  23:49:54  -6.20  -3.09  -503.245522    3
iter:   8  23:50:13  -6.19  -3.02  -503.245782    3
iter:   9  23:50:33  -6.54  -3.52  -503.246360    3
iter:  10  23:50:52  -7.20  -3.51  -503.246293    2
iter:  11  23:51:11  -7.38  -3.56  -503.245903    3
iter:  12  23:51:31  -7.57  -3.92  -503.245983    3
iter:  13  23:51:50  -7.60  -4.04  -503.245923    3