User:   jywang@lbnode01
Date:   Sun Jul 25 04:26:14 2021
Arch:   x86_64
Pid:    237354
Python: 3.7.4
gpaw:   /home/jywang/intel/intelpython3/lib/python3.7/site-packages/gpaw
_gpaw:  /home/jywang/intel/intelpython3/lib/python3.7/site-packages/
        _gpaw.cpython-37m-x86_64-linux-gnu.so
ase:    /home/jywang/intel/intelpython3/lib/python3.7/site-packages/ase (version 3.19.0)
numpy:  /home/jywang/intel/intelpython3/lib/python3.7/site-packages/numpy (version 1.17.4)
scipy:  /home/jywang/intel/intelpython3/lib/python3.7/site-packages/scipy (version 1.3.2)
units:  Angstrom and eV
cores: 32
OMP_NUM_THREADS: 1

Input parameters:
  convergence: {eigenstates: 1e-08}
  kpts: [3 3 1]
  mode: {ecut: 450.00000000000006,
         gammacentered: False,
         name: pw}
  occupations: {name: fermi-dirac,
                width: 0.01}
  random: True
  xc: PBE

System changes: positions, numbers, cell, pbc, initial_charges, initial_magmoms

Initialize ...

Li-setup:
  name: Lithium
  id: 830b4218f175192f93f959cfc0aad614
  Z: 3
  valence: 1
  core: 2
  charge: 0.0
  file: /home/jywang/gpaw_paws/gpaw-setups-0.9.20000/Li.PBE.gz
  compensation charges: gauss, rc=0.33, lmax=2
  cutoffs: 1.91(filt), 2.55(core),
  valence states:
                energy  radius
    2s(1.00)    -2.874   1.058
    2p(0.00)    -1.090   1.058
    *s          24.337   1.058

  Using partial waves for Li as LCAO basis

N-setup:
  name: Nitrogen
  id: f7500608b86eaa90eef8b1d9a670dc53
  Z: 7
  valence: 5
  core: 2
  charge: 0.0
  file: /home/jywang/gpaw_paws/gpaw-setups-0.9.20000/N.PBE.gz
  compensation charges: gauss, rc=0.18, lmax=2
  cutoffs: 1.11(filt), 0.96(core),
  valence states:
                energy  radius
    2s(2.00)   -18.583   0.603
    2p(3.00)    -7.089   0.529
    *s           8.629   0.603
    *p          20.123   0.529
    *d           0.000   0.577

  Using partial waves for N as LCAO basis

Reference energy: -41801.699299

Spin-paired calculation

Occupation numbers:
  Fermi-Dirac: width=0.0100 eV

Convergence criteria:
  Maximum total energy change: 0.0005 eV / electron
  Maximum integral of absolute density change: 0.0001 electrons
  Maximum integral of absolute eigenstate change: 1e-08 eV^2
  Maximum number of iterations: 333

Symmetries present (total): 2

  ( 1  0  0)  ( 1  0  0)
  ( 0  1  0)  ( 0 -1  0)
  ( 0  0  1)  ( 0  0  1)

9 k-points: 3 x 3 x 1 Monkhorst-Pack grid
4 k-points in the irreducible part of the Brillouin zone
       k-points in crystal coordinates                weights
   0:     0.00000000    0.00000000    0.00000000          1/9
   1:     0.00000000    0.33333333    0.00000000          2/9
   2:     0.33333333    0.00000000    0.00000000          2/9
   3:     0.33333333    0.33333333    0.00000000          4/9

Wave functions: Plane wave expansion
  Cutoff energy: 450.000 eV
  Number of coefficients (min, max): 31479, 31570
  Pulay-stress correction: 0.000000 eV/Ang^3 (de/decut=0.000000)
  Using FFTW library
  ScaLapack parameters: grid=1x1, blocksize=None
  Wavefunction extrapolation:
    Improved wavefunction reuse through dual PAW basis

Eigensolver
   Davidson(niter=2, smin=None, normalize=True)

Densities:
  Coarse grid: 35*36*144 grid
  Fine grid: 70*72*288 grid
  Total Charge: 0.000000

Density mixing:
  Method: separate
  Backend: pulay
  Linear mixing parameter: 0.05
  Mixing with 5 old densities
  Damping of long wave oscillations: 50

Hamiltonian:
  XC and Coulomb potentials evaluated on a 70*72*288 grid
  Using the PBE Exchange-Correlation functional

XC parameters: PBE with 2 nearest neighbor stencil

Total number of cores used: 32
Parallelization over k-points: 4
Domain decomposition: 1 x 1 x 8

Number of atoms: 80
Number of atomic orbitals: 320
Number of bands in calculation: 100
Number of valence electrons: 160
Bands to converge: occupied

... initialized

Initializing position-dependent things.

Density initialized from atomic densities
Creating initial wave functions:
  100 bands from LCAO basis set

 | Li|  Li Li    Li   |
 |   | N        N     |
 Li  |Li LiLi  Li   Li|
 |   N Li     N Li    |
 |   |   Li Li    Li Li
 |   Li    N  Li    N |
 |   | Li Li    Li Li |
 |   |  LN Li    LN Li|
 |   LiN      LiN     |
 |   |Li Li    Li Li  |
 |   N     Li N     Li|
 |   | Li   Li  Li   Li
 |   |   LiN      LiN |
 |   LiLi Li  LiLi Li |
 |   |   N Li     N Li|
 |   Li-Li----Li-Li---.
 |  /  N Li     N Li /
 | /  Li   Li  Li   Li
 |/  N        N    /
 *-------Li-------Li

Positions:
   0 Li     3.435097    0.000000    0.041480    ( 0.0000,  0.0000,  0.0000)
   1 Li     6.870647    0.000000    0.041480    ( 0.0000,  0.0000,  0.0000)
   2 Li     3.435097    3.658360    0.041480    ( 0.0000,  0.0000,  0.0000)
   3 Li     6.870647    3.658360    0.041480    ( 0.0000,  0.0000,  0.0000)
   4 N      1.717342    0.000000    1.033201    ( 0.0000,  0.0000,  0.0000)
   5 N      5.152892    0.000000    1.033201    ( 0.0000,  0.0000,  0.0000)
   6 Li     1.717342    1.829180    1.033201    ( 0.0000,  0.0000,  0.0000)
   7 Li     5.152892    1.829180    1.033201    ( 0.0000,  0.0000,  0.0000)
   8 N      1.717342    3.658360    1.033201    ( 0.0000,  0.0000,  0.0000)
   9 N      5.152892    3.658360    1.033201    ( 0.0000,  0.0000,  0.0000)
  10 Li     1.717342    5.487540    1.033201    ( 0.0000,  0.0000,  0.0000)
  11 Li     5.152892    5.487540    1.033201    ( 0.0000,  0.0000,  0.0000)
  12 Li     3.435138    0.000000    2.024922    ( 0.0000,  0.0000,  0.0000)
  13 Li     6.870688    0.000000    2.024922    ( 0.0000,  0.0000,  0.0000)
  14 Li     3.435138    3.658360    2.024922    ( 0.0000,  0.0000,  0.0000)
  15 Li     6.870688    3.658360    2.024922    ( 0.0000,  0.0000,  0.0000)
  16 Li     1.717431    0.000000    3.016701    ( 0.0000,  0.0000,  0.0000)
  17 Li     5.152981    0.000000    3.016701    ( 0.0000,  0.0000,  0.0000)
  18 Li     1.717431    3.658360    3.016701    ( 0.0000,  0.0000,  0.0000)
  19 Li     5.152981    3.658360    3.016701    ( 0.0000,  0.0000,  0.0000)
  20 N      3.435220    0.000000    4.008422    ( 0.0000,  0.0000,  0.0000)
  21 N      6.870770    0.000000    4.008422    ( 0.0000,  0.0000,  0.0000)
  22 Li     3.435220    1.829180    4.008422    ( 0.0000,  0.0000,  0.0000)
  23 Li     6.870770    1.829180    4.008422    ( 0.0000,  0.0000,  0.0000)
  24 N      3.435220    3.658360    4.008422    ( 0.0000,  0.0000,  0.0000)
  25 N      6.870770    3.658360    4.008422    ( 0.0000,  0.0000,  0.0000)
  26 Li     3.435220    5.487540    4.008422    ( 0.0000,  0.0000,  0.0000)
  27 Li     6.870770    5.487540    4.008422    ( 0.0000,  0.0000,  0.0000)
  28 Li     1.717466    0.000000    5.000143    ( 0.0000,  0.0000,  0.0000)
  29 Li     5.153016    0.000000    5.000143    ( 0.0000,  0.0000,  0.0000)
  30 Li     1.717466    3.658360    5.000143    ( 0.0000,  0.0000,  0.0000)
  31 Li     5.153016    3.658360    5.000143    ( 0.0000,  0.0000,  0.0000)
  32 Li     3.435310    0.000000    5.991893    ( 0.0000,  0.0000,  0.0000)
  33 Li     6.870860    0.000000    5.991893    ( 0.0000,  0.0000,  0.0000)
  34 Li     3.435310    3.658360    5.991893    ( 0.0000,  0.0000,  0.0000)
  35 Li     6.870860    3.658360    5.991893    ( 0.0000,  0.0000,  0.0000)
  36 N      1.717548    0.000000    6.983643    ( 0.0000,  0.0000,  0.0000)
  37 N      5.153098    0.000000    6.983643    ( 0.0000,  0.0000,  0.0000)
  38 Li     1.717548    1.829180    6.983643    ( 0.0000,  0.0000,  0.0000)
  39 Li     5.153098    1.829180    6.983643    ( 0.0000,  0.0000,  0.0000)
  40 N      1.717548    3.658360    6.983643    ( 0.0000,  0.0000,  0.0000)
  41 N      5.153098    3.658360    6.983643    ( 0.0000,  0.0000,  0.0000)
  42 Li     1.717548    5.487540    6.983643    ( 0.0000,  0.0000,  0.0000)
  43 Li     5.153098    5.487540    6.983643    ( 0.0000,  0.0000,  0.0000)
  44 Li     3.435344    0.000000    7.975364    ( 0.0000,  0.0000,  0.0000)
  45 Li     6.870894    0.000000    7.975364    ( 0.0000,  0.0000,  0.0000)
  46 Li     3.435344    3.658360    7.975364    ( 0.0000,  0.0000,  0.0000)
  47 Li     6.870894    3.658360    7.975364    ( 0.0000,  0.0000,  0.0000)
  48 Li     1.717638    0.000000    8.967114    ( 0.0000,  0.0000,  0.0000)
  49 Li     5.153188    0.000000    8.967114    ( 0.0000,  0.0000,  0.0000)
  50 Li     1.717638    3.658360    8.967114    ( 0.0000,  0.0000,  0.0000)
  51 Li     5.153188    3.658360    8.967114    ( 0.0000,  0.0000,  0.0000)
  52 N      3.435426    0.000000    9.958835    ( 0.0000,  0.0000,  0.0000)
  53 N      6.870976    0.000000    9.958835    ( 0.0000,  0.0000,  0.0000)
  54 Li     3.435426    1.829180    9.958835    ( 0.0000,  0.0000,  0.0000)
  55 Li     6.870976    1.829180    9.958835    ( 0.0000,  0.0000,  0.0000)
  56 N      3.435426    3.658360    9.958835    ( 0.0000,  0.0000,  0.0000)
  57 N      6.870976    3.658360    9.958835    ( 0.0000,  0.0000,  0.0000)
  58 Li     3.435426    5.487540    9.958835    ( 0.0000,  0.0000,  0.0000)
  59 Li     6.870976    5.487540    9.958835    ( 0.0000,  0.0000,  0.0000)
[...]
  65 Li     6.871066    0.000000   11.942335    ( 0.0000,  0.0000,  0.0000)
  66 Li     3.435516    3.658360   11.942335    ( 0.0000,  0.0000,  0.0000)
  67 Li     6.871066    3.658360   11.942335    ( 0.0000,  0.0000,  0.0000)
  68 N      1.717754    0.000000   12.934056    ( 0.0000,  0.0000,  0.0000)
  69 N      5.153304    0.000000   12.934056    ( 0.0000,  0.0000,  0.0000)
  70 Li     1.717754    1.829180   12.934056    ( 0.0000,  0.0000,  0.0000)
  71 Li     5.153304    1.829180   12.934056    ( 0.0000,  0.0000,  0.0000)
  72 N      1.717754    3.658360   12.934056    ( 0.0000,  0.0000,  0.0000)
  73 N      5.153304    3.658360   12.934056    ( 0.0000,  0.0000,  0.0000)
  74 Li     1.717754    5.487540   12.934056    ( 0.0000,  0.0000,  0.0000)
  75 Li     5.153304    5.487540   12.934056    ( 0.0000,  0.0000,  0.0000)
  76 Li     0.000000    0.000000   13.925806    ( 0.0000,  0.0000,  0.0000)
  77 Li     3.435550    0.000000   13.925806    ( 0.0000,  0.0000,  0.0000)
  78 Li     0.000000    3.658360   13.925806    ( 0.0000,  0.0000,  0.0000)
  79 Li     3.435550    3.658360   13.925806    ( 0.0000,  0.0000,  0.0000)

Unit cell:
           periodic     x           y           z      points  spacing
  1. axis:    yes    6.871100    0.000000    0.000000    35     0.1963
  2. axis:    yes    0.000000    7.316720    0.000000    36     0.2032
  3. axis:    yes    0.000000    0.000000   28.925800   144     0.2009

  Lengths:   6.871100   7.316720  28.925800
  Angles:   90.000000  90.000000  90.000000

Effective grid spacing dv^(1/3) = 0.2001

                     log10-error:    total        iterations:
           time      wfs    density  energy       fermi  poisson
iter:   1  04:26:41                -335.032801    0
iter:   2  04:26:48  -0.99  -0.50  -320.698980    0
iter:   3  04:26:56  -0.35  -0.55  -286.898803    0
iter:   4  04:27:04  -0.65  -0.83  -283.078671    2
iter:   5  04:27:12  -1.32  -1.02  -281.792844    0
iter:   6  04:27:19  -1.24  -1.26  -282.281891    23
iter:   7  04:27:27  -2.01  -1.47  -282.036468    8
iter:   8  04:27:34  -1.45  -1.46  -281.367088    10
[...]
 |   LiLi Li  LiLi Li |
 |   |   N        N   |
 |   Li-Li-Li-Li-Li-Li.
 |  /  N        N    /
 | /  Li Li    Li Li/
 |/  N        N    /

[...]

Density initialized from wave functions
  /  |     Li       Li|
 |   |   Li       Li  |
 |   |  Li Li    Li Li|
 |   | N        N     |
 |   |Li Li    Li Li  |
 |   N     Li N     Li|
 |   | Li   Li  Li   Li
 |   |   LiN      LiN |
 |   Li   Li  Li   Li |
 |   | LiN      LiN   |
 |   |  Li Li    Li Li|
 |   LiN      LiN     |
 |   |Li Li    Li Li  |
 |   N     Li N     Li|
 |   | Li   Li  Li   Li
 |   |   LiN      LiN |
 |   LiLi Li  LiLi Li |
 |   |   N        N   |
 |   Li-Li-Li-Li-Li-Li.
 |  /  N        N    /
 | /  Li Li    Li Li/
 |/  N        N    /

[...]

Density initialized from wave functions
  /  |     Li       Li|
 |   |   Li       Li  |
 |   |  Li Li    Li Li|
 |   | N        N     |
 |   |Li Li    Li Li  |
 |   N     Li N     Li|
 |   | Li   Li  Li   Li
 |   |   LiN      LiN |
 |   Li   Li  Li   Li |
 |   | LiN      LiN   |
 |   |  Li Li    Li Li|
 |   LiN      LiN     |
 |   |Li Li    Li Li  |
 |   N     Li N     Li|
 |   | Li   Li  Li   Li
 |   |   LiN      LiN |
 |   LiLi Li  LiLi Li |
 |   |   N        N   |
 |   Li-Li-Li-Li-Li-Li.
 |  /  N        N    /
 | /  Li Li    Li Li/
 |/  N        N    /

[...]

Density initialized from wave functions
  /  |     Li       Li|
 |   |   Li       Li  |
 |   |  Li Li    Li Li|
 |   | N        N     |
 |   |Li LiLi  Li LiLi|
 |   N        N       |
 |   | LiLi Li  LiLi Li
 |   |     N        N |
 |   Li   Li  Li   Li |
 |   | LiN      LiN   |
 |   |  Li Li    Li Li|
 |   LiN      LiN     |
 |   |Li Li    Li Li  |
 |   N     Li N     Li|
 |   | Li   Li  Li   Li
 |   |   LiN      LiN |
 |   Li   Li  Li   Li |
 |   | LiN      LiN   |
 |   .--Li-Li----Li-Li.
 |  /LiN      LiN    /
 | /  Li Li    Li Li/
 |/  N        N    /

[...]

Density initialized from wave functions
  /  |     Li       Li|
 |   |   Li       Li  |
 |   |  Li Li    Li Li|
 |   | N        N     |
 |   |Li LiLi  Li LiLi|
 |   N        N       |
 |   | LiLi Li  LiLi Li
 |   |     N        N |
 |   Li   Li  Li   Li |
 |   | LiN      LiN   |
 |   |  Li Li    Li Li|
 |   LiN      LiN     |
 |   |Li Li    Li Li  |
 |   N     Li N     Li|
 |   | Li   Li  Li   Li
 |   |   LiN      LiN |
 |   Li   Li  Li   Li |
 |   | LiN      LiN   |
 |   .--Li-Li----Li-Li.
 |  /LiN      LiN    /
 | /  Li Li    Li Li/
 |/  N        N    /

[...]

Density initialized from wave functions
  /  |     Li       Li|
 |   |   Li       Li  |
 |   |  Li Li    Li Li|
 |   | N        N     |
 |   |Li LiLi  Li LiLi|
 |   N        N       |
 |   | LiLi Li  LiLi Li
 |   |     N        N |
 |   Li   Li  Li   Li |
 |   | LiN      LiN   |
 |   |  Li Li    Li Li|
 |   LiN      LiN     |
 |   |Li Li    Li Li  |
 |   N     Li N     Li|
 |   | Li   Li  Li   Li
 |   |   LiN      LiN |
 |   Li   Li  Li   Li |
 |   | LiN      LiN   |
 |   .-----Li-------Li.
 |  /LiNLi    LiNLi  /
 | /     Li       Li/
 |/  NLi      NLi  /

[...]

Density initialized from wave functions
  /  |     Li       Li|
 |   |   Li       Li  |
 |   |  Li Li    Li Li|
 |   | N        N     |
 |   |Li LiLi  Li LiLi|
 |   N        N       |
 |   | LiLi Li  LiLi Li
 |   |     N        N |
 |   Li   Li  Li   Li |
 |   | LiN      LiN   |
 |   |  Li Li    Li Li|
 |   LiN      LiN     |
 |   |Li Li    Li Li  |
 |   N     Li N     Li|
 |   | Li   Li  Li   Li
 |   |   LiN      LiN |
 |   Li   Li  Li   Li |
 |   | LiN      LiN   |
 |   .-----Li-------Li.
 |  /Li Li    Li Li  /
 | /   N Li     N Li/
 |/   Li       Li  /
 *---N--------N---*

[...]

Density initialized from wave functions
  /  |     Li       Li|
 |   |   Li       Li  |
 |   |  Li Li    Li Li|
 |   | N        N     |
 |   |Li LiLi  Li LiLi|
 |   N        N       |
 |   | LiLi Li  LiLi Li
 |   |     N        N |
 |   Li   Li  Li   Li |
 |   | LiN      LiN   |
 |   |  Li Li    Li Li|
 |   LiN      LiN     |
 |   |Li Li    Li Li  |
 |   N     Li N     Li|
 |   | Li   Li  Li   Li
 |   |   LiN      LiN |
 |   Li   Li  Li   Li |
 |   | LiN      LiN   |
 |   .-----Li-------Li.
 |  /Li Li    Li Li  /
 | /   N Li     N Li/
 |/   Li       Li  /
 *---N--------N---*

[...]

Density initialized from wave functions
  /  |     Li       Li|
 |   |   Li       Li  |
 |   |  Li Li    Li Li|
 |   | N        N     |
 |   |Li Li    Li Li  |
 |   N     Li N     Li|
 |   | Li   Li  Li   Li
 |   |   LiN      LiN |
 |   Li   Li  Li   Li |
 |   | LiN      LiN   |
 |   |  Li Li    Li Li|
 |   LiN      LiN     |
 |   |Li Li    Li Li  |
 |   N     Li N     Li|
 |   | Li   Li  Li   Li
 |   |   LiN      LiN |
 |   Li   Li  Li   Li |
 |   | LiN      LiN   |
 |   .-----Li-------Li.
 |  /LiNLi    LiNLi  /
 | /     Li       Li/
 |/  NLi      NLi  /

[...]

Density initialized from wave functions
  /  |     Li       Li|
 |   |   Li       Li  |
 |   |  Li Li    Li Li|
 |   | N        N     |
 |   |Li Li    Li Li  |
 |   N     Li N     Li|
 |   | Li   Li  Li   Li
 |   |   LiN      LiN |
 |   Li   Li  Li   Li |
 |   | LiN      LiN   |
 |   |  Li Li    Li Li|
 |   LiN      LiN     |
 |   |Li Li    Li Li  |
 |   N     Li N     Li|
 |   | Li   Li  Li   Li
 |   |   LiN      LiN |
 |   Li   Li  Li   Li |
 |   | LiN      LiN   |
 |   .-----Li-------Li.
 |  /LiNLi    LiNLi  /
 | /     Li       Li/
 |/  NLi      NLi  /

[...]

System changes: positions

Initializing position-dependent things.

Density initialized from wave functions
  /  |     Li       Li|
 |   |   Li       Li  |
 |   |  Li Li    Li Li|
 |   | N        N     |
 |   |Li LiLi  Li LiLi|
 |   N        N       |
 |   | LiLi Li  LiLi Li
 |   |     N        N |
 |   Li   Li  Li   Li |
 |   | LiN      LiN   |
 |   |  Li Li    Li Li|
 |   LiN      LiN     |
 |   |Li Li    Li Li  |
 |   N     Li N     Li|
 |   | Li   Li  Li   Li
 |   |   LiN      LiN |
 |   Li   Li  Li   Li |
 |   | LiN      LiN   |
 |   .-----Li-------Li.
 |  /LiNLi    LiNLi  /
 | /     Li       Li/
 |/  NLi      NLi  /

Positions:
   0 Li     3.435251    0.000000   -0.632659    ( 0.0000,  0.0000,  0.0000)
   1 Li     6.870794    0.000000   -0.631970    ( 0.0000,  0.0000,  0.0000)
   2 Li     3.435251    3.658360   -0.632659    ( 0.0000,  0.0000,  0.0000)
   3 Li     6.870794    3.658360   -0.631971    ( 0.0000,  0.0000,  0.0000)
   4 N      1.719372    0.000000    0.436432    ( 0.0000,  0.0000,  0.0000)
   5 N      5.151146    0.000000    0.436442    ( 0.0000,  0.0000,  0.0000)
   6 Li     1.718181    1.829180    0.352333    ( 0.0000,  0.0000,  0.0000)
   7 Li     5.152352    1.829180    0.352351    ( 0.0000,  0.0000,  0.0000)
   8 N      1.719372    3.658360    0.436432    ( 0.0000,  0.0000,  0.0000)
   9 N      5.151146    3.658360    0.436442    ( 0.0000,  0.0000,  0.0000)
  10 Li     1.718181    5.487540    0.352333    ( 0.0000,  0.0000,  0.0000)
  11 Li     5.152352    5.487540    0.352351    ( 0.0000,  0.0000,  0.0000)
  12 Li     3.435261    0.000000    1.487436    ( 0.0000,  0.0000,  0.0000)
  13 Li     6.870816    0.000000    1.486885    ( 0.0000,  0.0000,  0.0000)
  14 Li     3.435261    3.658360    1.487436    ( 0.0000,  0.0000,  0.0000)
  15 Li     6.870817    3.658360    1.486885    ( 0.0000,  0.0000,  0.0000)
  16 Li     1.717506    0.000000    2.668707    ( 0.0000,  0.0000,  0.0000)
  17 Li     5.153044    0.000000    2.668706    ( 0.0000,  0.0000,  0.0000)
  18 Li     1.717506    3.658360    2.668707    ( 0.0000,  0.0000,  0.0000)
  19 Li     5.153044    3.658360    2.668706    ( 0.0000,  0.0000,  0.0000)
  20 N      3.435267    0.000000    3.724782    ( 0.0000,  0.0000,  0.0000)
  21 N      6.870849    0.000000    3.724947    ( 0.0000,  0.0000,  0.0000)
  22 Li     3.435265    1.829180    3.729100    ( 0.0000,  0.0000,  0.0000)
  23 Li     6.870829    1.829180    3.729394    ( 0.0000,  0.0000,  0.0000)
  24 N      3.435267    3.658360    3.724782    ( 0.0000,  0.0000,  0.0000)
  25 N      6.870849    3.658360    3.724947    ( 0.0000,  0.0000,  0.0000)
  26 Li     3.435265    5.487540    3.729100    ( 0.0000,  0.0000,  0.0000)
  27 Li     6.870829    5.487540    3.729394    ( 0.0000,  0.0000,  0.0000)
  28 Li     1.717551    0.000000    4.775648    ( 0.0000,  0.0000,  0.0000)
  29 Li     5.153036    0.000000    4.775640    ( 0.0000,  0.0000,  0.0000)
  30 Li     1.717551    3.658360    4.775648    ( 0.0000,  0.0000,  0.0000)
  31 Li     5.153036    3.658360    4.775640    ( 0.0000,  0.0000,  0.0000)
  32 Li     3.435317    0.000000    5.948924    ( 0.0000,  0.0000,  0.0000)
  33 Li     6.870864    0.000000    5.949361    ( 0.0000,  0.0000,  0.0000)
  34 Li     3.435317    3.658360    5.948924    ( 0.0000,  0.0000,  0.0000)
  35 Li     6.870864    3.658360    5.949361    ( 0.0000,  0.0000,  0.0000)
  36 N      1.719436    0.000000    7.003449    ( 0.0000,  0.0000,  0.0000)
  37 N      5.151217    0.000000    7.003447    ( 0.0000,  0.0000,  0.0000)
  38 Li     1.718447    1.829180    7.003016    ( 0.0000,  0.0000,  0.0000)
  39 Li     5.152206    1.829180    7.003013    ( 0.0000,  0.0000,  0.0000)
  40 N      1.719436    3.658360    7.003449    ( 0.0000,  0.0000,  0.0000)
  41 N      5.151217    3.658360    7.003447    ( 0.0000,  0.0000,  0.0000)
  42 Li     1.718447    5.487540    7.003016    ( 0.0000,  0.0000,  0.0000)
  43 Li     5.152206    5.487540    7.003013    ( 0.0000,  0.0000,  0.0000)
  44 Li     3.435339    0.000000    8.054171    ( 0.0000,  0.0000,  0.0000)
  45 Li     6.870888    0.000000    8.053698    ( 0.0000,  0.0000,  0.0000)
  46 Li     3.435339    3.658360    8.054171    ( 0.0000,  0.0000,  0.0000)
  47 Li     6.870888    3.658360    8.053698    ( 0.0000,  0.0000,  0.0000)
  48 Li     1.717608    0.000000    9.219265    ( 0.0000,  0.0000,  0.0000)
  49 Li     5.153110    0.000000    9.219268    ( 0.0000,  0.0000,  0.0000)
  50 Li     1.717608    3.658360    9.219265    ( 0.0000,  0.0000,  0.0000)
  51 Li     5.153110    3.658360    9.219268    ( 0.0000,  0.0000,  0.0000)
  52 N      3.435357    0.000000   10.267065    ( 0.0000,  0.0000,  0.0000)
  53 N      6.870930    0.000000   10.266999    ( 0.0000,  0.0000,  0.0000)
  54 Li     3.435373    1.829180   10.265430    ( 0.0000,  0.0000,  0.0000)
  55 Li     6.870933    1.829180   10.265144    ( 0.0000,  0.0000,  0.0000)
  56 N      3.435357    3.658360   10.267065    ( 0.0000,  0.0000,  0.0000)
  57 N      6.870930    3.658360   10.266998    ( 0.0000,  0.0000,  0.0000)
  58 Li     3.435373    5.487540   10.265430    ( 0.0000,  0.0000,  0.0000)
  59 Li     6.870933    5.487540   10.265144    ( 0.0000,  0.0000,  0.0000)
[...]
  65 Li     6.870943    0.000000   12.482325    ( 0.0000,  0.0000,  0.0000)
  66 Li     3.435392    3.658360   12.481797    ( 0.0000,  0.0000,  0.0000)
  67 Li     6.870943    3.658360   12.482325    ( 0.0000,  0.0000,  0.0000)
  68 N      1.719514    0.000000   13.516717    ( 0.0000,  0.0000,  0.0000)
  69 N      5.151283    0.000000   13.516714    ( 0.0000,  0.0000,  0.0000)
  70 Li     1.718309    1.829180   13.616028    ( 0.0000,  0.0000,  0.0000)
  71 Li     5.152473    1.829180   13.616023    ( 0.0000,  0.0000,  0.0000)
  72 N      1.719514    3.658360   13.516717    ( 0.0000,  0.0000,  0.0000)
  73 N      5.151283    3.658360   13.516714    ( 0.0000,  0.0000,  0.0000)
  74 Li     1.718309    5.487540   13.616028    ( 0.0000,  0.0000,  0.0000)
  75 Li     5.152473    5.487540   13.616023    ( 0.0000,  0.0000,  0.0000)
  76 Li    -0.000143    0.000000   14.597991    ( 0.0000,  0.0000,  0.0000)
  77 Li     3.435409    0.000000   14.598680    ( 0.0000,  0.0000,  0.0000)
  78 Li    -0.000143    3.658360   14.597991    ( 0.0000,  0.0000,  0.0000)
  79 Li     3.435409    3.658360   14.598680    ( 0.0000,  0.0000,  0.0000)

Unit cell:
           periodic     x           y           z      points  spacing
  1. axis:    yes    6.871100    0.000000    0.000000    35     0.1963
  2. axis:    yes    0.000000    7.316720    0.000000    36     0.2032
  3. axis:    yes    0.000000    0.000000   28.925800   144     0.2009

  Lengths:   6.871100   7.316720  28.925800
  Angles:   90.000000  90.000000  90.000000

Effective grid spacing dv^(1/3) = 0.2001

                     log10-error:    total        iterations:
           time      wfs    density  energy       fermi  poisson
iter:   1  05:47:16  -3.12         -283.976765    0
iter:   2  05:47:23  -4.47  -2.63  -283.971072    0
iter:   3  05:47:30  -4.07  -2.74  -283.963943    0
iter:   4  05:47:38  -5.39  -3.10  -283.963780    0
iter:   5  05:47:45  -6.13  -3.31  -283.963756    0
iter:   6  05:47:53  -5.73  -3.40  -283.963608    0
iter:   7  05:48:00  -6.65  -3.50  -283.963594    0
iter:   8  05:48:08  -6.57  -3.71  -283.963597    0
iter:   9  05:48:15  -6.56  -4.07  -283.963594    0
iter:  10  05:48:23  -6.63  -4.03  -283.963594    0
iter:  11  05:48:30  -7.44  -4.20  -283.963589    0
iter:  12  05:48:38  -7.82  -4.42  -283.963589    0
iter:  13  05:48:46  -8.44  -4.50  -283.963590    0

Converged after 13 iterations.

Dipole moment: (0.096352, -0.000000, -88.173665) |e|*Ang

Energy contributions relative to reference atoms: (reference = -41801.699299)

Kinetic:       +304.587231
Potential:     -210.525051
External:        +0.000000
XC:            -376.171374
Entropy (-ST):   -0.000000
Local:           -1.854395
Free energy:   -283.963590
Extrapolated:  -283.963590

Fermi level: 0.37040

Showing only first 2 kpts
 Kpt  Band  Eigenvalues  Occupancy
  0    78     -0.21681    0.22222
  0    79     -0.07760    0.22222
  0    80      0.60996    0.00000
  0    81      0.76649    0.00000

  1    78     -0.28800    0.44444
  1    79     -0.15270    0.44444
  1    80      1.05370    0.00000
  1    81      1.12953    0.00000

Gap: 0.688 eV
Transition (v -> c):
  (s=0, k=0, n=79, [0.00, 0.00, 0.00]) -> (s=0, k=0, n=80, [0.00, 0.00, 0.00])

Forces in eV/Ang:
  0 Li    0.00005    0.00000   -0.02858
  1 Li    0.00006    0.00000   -0.02852
  2 Li    0.00005    0.00000   -0.02858
  3 Li    0.00005    0.00000   -0.02852
  4 N     0.00259    0.00000   -0.02697
  5 N    -0.00255    0.00000   -0.02698
  6 Li    0.00075    0.00000    0.03631
  7 Li   -0.00081   -0.00000    0.03630
  8 N     0.00259    0.00000   -0.02697
  9 N    -0.00255    0.00000   -0.02698
 10 Li    0.00075   -0.00000    0.03631
 11 Li   -0.00081    0.00000    0.03630
 12 Li    0.00004    0.00000   -0.01736
 13 Li    0.00005    0.00000   -0.01741
 14 Li    0.00004    0.00000   -0.01736
 15 Li    0.00005    0.00000   -0.01741
 16 Li    0.00031    0.00000    0.01509
 17 Li   -0.00037    0.00000    0.01511
 18 Li    0.00031    0.00000    0.01509
 19 Li   -0.00037    0.00000    0.01511
 20 N    -0.00001    0.00000   -0.01760
 21 N     0.00003    0.00000   -0.01757
 22 Li    0.00002   -0.00000   -0.02896
 23 Li    0.00002    0.00000   -0.02941
 24 N    -0.00001    0.00000   -0.01759
 25 N     0.00003    0.00000   -0.01757
 26 Li    0.00002    0.00000   -0.02896
 27 Li    0.00002   -0.00000   -0.02941
 28 Li    0.00087    0.00000   -0.00501
 29 Li   -0.00077    0.00000   -0.00502
 30 Li    0.00087    0.00000   -0.00501
 31 Li   -0.00077    0.00000   -0.00502
 32 Li   -0.00007    0.00000    0.00754
 33 Li   -0.00005    0.00000    0.00942
 34 Li   -0.00007    0.00000    0.00754
 35 Li   -0.00005    0.00000    0.00942
 36 N     0.00169    0.00000    0.00284
 37 N    -0.00167    0.00000    0.00284
 38 Li    0.00026   -0.00000   -0.00403
 39 Li   -0.00026    0.00000   -0.00402
 40 N     0.00169    0.00000    0.00284
 41 N    -0.00167    0.00000    0.00284
 42 Li    0.00026    0.00000   -0.00403
 43 Li   -0.00026   -0.00000   -0.00402
 44 Li    0.00004    0.00000   -0.00737
 45 Li    0.00005    0.00000   -0.00931
 46 Li    0.00004    0.00000   -0.00737
 47 Li    0.00005    0.00000   -0.00931
 48 Li    0.00075    0.00000   -0.00443
 49 Li   -0.00084    0.00000   -0.00442
 50 Li    0.00075    0.00000   -0.00443
 51 Li   -0.00084    0.00000   -0.00442
 52 N    -0.00002    0.00000   -0.01519
 53 N    -0.00000    0.00000   -0.01507
 54 Li   -0.00002    0.00000    0.01790
 55 Li   -0.00001   -0.00000    0.01838
 56 N    -0.00002    0.00000   -0.01519
 57 N    -0.00000    0.00000   -0.01508
 58 Li   -0.00002   -0.00000    0.01790
 59 Li   -0.00001    0.00000    0.01838
[...]
 65 Li   -0.00005    0.00000   -0.00975
 66 Li   -0.00005    0.00000   -0.01021
 67 Li   -0.00005    0.00000   -0.00975
 68 N     0.00250    0.00000    0.01709
 69 N    -0.00254    0.00000    0.01708
 70 Li    0.00080   -0.00000   -0.04884
 71 Li   -0.00074    0.00000   -0.04884
 72 N     0.00250    0.00000    0.01709
 73 N    -0.00254    0.00000    0.01708
 74 Li    0.00080    0.00000   -0.04884
 75 Li   -0.00074   -0.00000   -0.04884
 76 Li   -0.00005    0.00000    0.00953
 77 Li   -0.00005    0.00000    0.00934
 78 Li   -0.00005    0.00000    0.00953
 79 Li   -0.00005    0.00000    0.00934