User:   jywang@lbnode02
Date:   Wed Jul  7 18:37:38 2021
Arch:   x86_64
Pid:    241001
Python: 3.7.7
gpaw:   /home/jywang/intel/intelpython3/lib/python3.7/site-packages/gpaw
_gpaw:  /home/jywang/intel/intelpython3/lib/python3.7/site-packages/
        _gpaw.cpython-37m-x86_64-linux-gnu.so
ase:    /home/jywang/intel/intelpython3/lib/python3.7/site-packages/ase (version 3.20.1)
numpy:  /home/jywang/intel/intelpython3/lib/python3.7/site-packages/numpy (version 1.17.5)
scipy:  /home/jywang/intel/intelpython3/lib/python3.7/site-packages/scipy (version 1.3.3)
units:  Angstrom and eV
cores: 32
OMP_NUM_THREADS: 1

Input parameters:
  convergence: {eigenstates: 1e-08}
  kpts: [3 2 1]
  mode: {ecut: 450.00000000000006,
         gammacentered: False,
         name: pw}
  occupations: {name: fermi-dirac,
                width: 0.01}
  random: True
  xc: PBE

System changes: positions, numbers, cell, pbc, initial_charges, initial_magmoms

Initialize ...

Li-setup:
  name: Lithium
  id: 830b4218f175192f93f959cfc0aad614
  Z: 3
  valence: 1
  core: 2
  charge: 0.0
  file: /home/jywang/gpaw_paws/gpaw-setups-0.9.20000/Li.PBE.gz
  compensation charges: gauss, rc=0.33, lmax=2
  cutoffs: 1.91(filt), 2.55(core),
  valence states:
                energy  radius
    2s(1.00)    -2.874   1.058
    2p(0.00)    -1.090   1.058
    *s          24.337   1.058

  Using partial waves for Li as LCAO basis

N-setup:
  name: Nitrogen
  id: f7500608b86eaa90eef8b1d9a670dc53
  Z: 7
  valence: 5
  core: 2
  charge: 0.0
  file: /home/jywang/gpaw_paws/gpaw-setups-0.9.20000/N.PBE.gz
  compensation charges: gauss, rc=0.18, lmax=2
  cutoffs: 1.11(filt), 0.96(core),
  valence states:
                energy  radius
    2s(2.00)   -18.583   0.603
    2p(3.00)    -7.089   0.529
    *s           8.629   0.603
    *p          20.123   0.529
    *d           0.000   0.577

  Using partial waves for N as LCAO basis

Reference energy: -75243.058738

Spin-paired calculation

Occupation numbers:
  Fermi-Dirac: width=0.0100 eV

Convergence criteria:
  Maximum total energy change: 0.0005 eV / electron
  Maximum integral of absolute density change: 0.0001 electrons
  Maximum integral of absolute eigenstate change: 1e-08 eV^2
  Maximum number of iterations: 333

Symmetries present (total): 2

  ( 1  0  0)  (-1  0  0)
  ( 0  1  0)  ( 0  1  0)
  ( 0  0  1)  ( 0  0  1)

6 k-points: 3 x 2 x 1 Monkhorst-Pack grid
2 k-points in the irreducible part of the Brillouin zone
       k-points in crystal coordinates                weights
   0:     0.00000000    0.25000000    0.00000000          2/6
   1:     0.33333333    0.25000000    0.00000000          4/6

Wave functions: Plane wave expansion
  Cutoff energy: 450.000 eV
  Number of coefficients (min, max): 57469, 57511
  Pulay-stress correction: 0.000000 eV/Ang^3 (de/decut=0.000000)
  Using FFTW library
  ScaLapack parameters: grid=1x1, blocksize=None
  Wavefunction extrapolation:
    Improved wavefunction reuse through dual PAW basis

Eigensolver
   Davidson(niter=2, smin=None, normalize=True)

Densities:
  Coarse grid: 36*60*150 grid
  Fine grid: 72*120*300 grid
  Total Charge: 0.000000

Density mixing:
  Method: separate
  Backend: pulay
  Linear mixing parameter: 0.05
  Mixing with 5 old densities
  Damping of long wave oscillations: 50

Hamiltonian:
  XC and Coulomb potentials evaluated on a 72*120*300 grid
  Using the PBE Exchange-Correlation functional

XC parameters: PBE with 2 nearest neighbor stencil

Total number of cores used: 32
Parallelization over k-points: 2
Domain decomposition: 1 x 2 x 8

Number of atoms: 144
Number of atomic orbitals: 576
Number of bands in calculation: 177
Number of valence electrons: 288
Bands to converge: occupied

... initialized

Initializing position-dependent things.

Density initialized from atomic densities
Creating initial wave functions:
  177 bands from LCAO basis set

 |     Li       Li        |
 |    NN| LiLi NN  LiLi   |
 |  LiLi|    LiLi         |
 | LiLi |   LiLi          |
 |N N  Lii N N  Lii       |
 Li   NN| LiLi NN  LiLi   |
 | LiiLi|   LiiLi         |
 |LiiLi |  LiiLi          |
 |N    Li  N    Li        |
 Li N NNLiLiLN NNLiLiLi   |
 | LiiLi|   LiiLi         |
 |Lii   |  Lii            |
 |N  LiLi  N  LiLi        |
 |  N NNLiLiLN NNLiLiLi   |
 LiLii  | LiLii           |
 |Lii Li|  Lii Li         |
 |   LiLi     LiLi        |
 |N N NLiiLN-N-NLiiLi-----.
 LiLii /  LiLii          /
 |Li  /    Li           /
 | Li/      Li         /
 |N /  Li  N    Li    /
 Li/      Li         /

Positions:
   0 Li     0.000000    0.000000    1.717733    ( 0.0000,  0.0000,  0.0000)
   1 Li     3.658360    0.000000    1.717733    ( 0.0000,  0.0000,  0.0000)
   2 N      0.000000    1.983513    1.717733    ( 0.0000,  0.0000,  0.0000)
   3 Li     1.829180    1.983513    1.717733    ( 0.0000,  0.0000,  0.0000)
   4 N      3.658360    1.983513    1.717733    ( 0.0000,  0.0000,  0.0000)
   5 Li     5.487540    1.983513    1.717733    ( 0.0000,  0.0000,  0.0000)
   6 Li     0.000000    3.967027    1.717733    ( 0.0000,  0.0000,  0.0000)
   7 Li     3.658360    3.967027    1.717733    ( 0.0000,  0.0000,  0.0000)
   8 Li     0.000000    5.950600    1.717733    ( 0.0000,  0.0000,  0.0000)
   9 Li     3.658360    5.950600    1.717733    ( 0.0000,  0.0000,  0.0000)
  10 N      0.000000    7.934113    1.717733    ( 0.0000,  0.0000,  0.0000)
  11 Li     1.829180    7.934113    1.717733    ( 0.0000,  0.0000,  0.0000)
  12 N      3.658360    7.934113    1.717733    ( 0.0000,  0.0000,  0.0000)
  13 Li     5.487540    7.934113    1.717733    ( 0.0000,  0.0000,  0.0000)
  14 Li     0.000000    9.917627    1.717733    ( 0.0000,  0.0000,  0.0000)
  15 Li     3.658360    9.917627    1.717733    ( 0.0000,  0.0000,  0.0000)
  16 Li     0.000000    0.991727    3.435436    ( 0.0000,  0.0000,  0.0000)
  17 Li     3.658360    0.991727    3.435436    ( 0.0000,  0.0000,  0.0000)
  18 Li     0.000000    2.975300    3.435436    ( 0.0000,  0.0000,  0.0000)
  19 Li     3.658360    2.975300    3.435436    ( 0.0000,  0.0000,  0.0000)
  20 N      0.000000    4.958813    3.435436    ( 0.0000,  0.0000,  0.0000)
  21 Li     1.829180    4.958813    3.435436    ( 0.0000,  0.0000,  0.0000)
  22 N      3.658360    4.958813    3.435436    ( 0.0000,  0.0000,  0.0000)
  23 Li     5.487540    4.958813    3.435436    ( 0.0000,  0.0000,  0.0000)
  24 Li     0.000000    6.942327    3.435436    ( 0.0000,  0.0000,  0.0000)
  25 Li     3.658360    6.942327    3.435436    ( 0.0000,  0.0000,  0.0000)
  26 Li     0.000000    8.925900    3.435436    ( 0.0000,  0.0000,  0.0000)
  27 Li     3.658360    8.925900    3.435436    ( 0.0000,  0.0000,  0.0000)
  28 N      0.000000   10.909413    3.435436    ( 0.0000,  0.0000,  0.0000)
  29 Li     1.829180   10.909413    3.435436    ( 0.0000,  0.0000,  0.0000)
  30 N      3.658360   10.909413    3.435436    ( 0.0000,  0.0000,  0.0000)
  31 Li     5.487540   10.909413    3.435436    ( 0.0000,  0.0000,  0.0000)
  32 Li     0.000000    0.000000    5.153169    ( 0.0000,  0.0000,  0.0000)
  33 Li     3.658360    0.000000    5.153169    ( 0.0000,  0.0000,  0.0000)
  34 N      0.000000    1.983513    5.153169    ( 0.0000,  0.0000,  0.0000)
  35 Li     1.829180    1.983513    5.153169    ( 0.0000,  0.0000,  0.0000)
  36 N      3.658360    1.983513    5.153169    ( 0.0000,  0.0000,  0.0000)
  37 Li     5.487540    1.983513    5.153169    ( 0.0000,  0.0000,  0.0000)
  38 Li     0.000000    3.967027    5.153169    ( 0.0000,  0.0000,  0.0000)
  39 Li     3.658360    3.967027    5.153169    ( 0.0000,  0.0000,  0.0000)
  40 Li     0.000000    5.950600    5.153169    ( 0.0000,  0.0000,  0.0000)
  41 Li     3.658360    5.950600    5.153169    ( 0.0000,  0.0000,  0.0000)
  42 N      0.000000    7.934113    5.153169    ( 0.0000,  0.0000,  0.0000)
  43 Li     1.829180    7.934113    5.153169    ( 0.0000,  0.0000,  0.0000)
  44 N      3.658360    7.934113    5.153169    ( 0.0000,  0.0000,  0.0000)
  45 Li     5.487540    7.934113    5.153169    ( 0.0000,  0.0000,  0.0000)
  46 Li     0.000000    9.917627    5.153169    ( 0.0000,  0.0000,  0.0000)
  47 Li     3.658360    9.917627    5.153169    ( 0.0000,  0.0000,  0.0000)
  48 Li     0.000000    0.991727    6.870901    ( 0.0000,  0.0000,  0.0000)
  49 Li     3.658360    0.991727    6.870901    ( 0.0000,  0.0000,  0.0000)
  50 Li     0.000000    2.975300    6.870901    ( 0.0000,  0.0000,  0.0000)
  51 Li     3.658360    2.975300    6.870901    ( 0.0000,  0.0000,  0.0000)
  52 N      0.000000    4.958813    6.870901    ( 0.0000,  0.0000,  0.0000)
  53 Li     1.829180    4.958813    6.870901    ( 0.0000,  0.0000,  0.0000)
  54 N      3.658360    4.958813    6.870901    ( 0.0000,  0.0000,  0.0000)
  55 Li     5.487540    4.958813    6.870901    ( 0.0000,  0.0000,  0.0000)
  56 Li     0.000000    6.942327    6.870901    ( 0.0000,  0.0000,  0.0000)
  57 Li     3.658360    6.942327    6.870901    ( 0.0000,  0.0000,  0.0000)
  58 Li     0.000000    8.925900    6.870901    ( 0.0000,  0.0000,  0.0000)
  59 Li     3.658360    8.925900    6.870901    ( 0.0000,  0.0000,  0.0000)
[...]
 129 Li     3.658360    0.000000   15.459506    ( 0.0000,  0.0000,  0.0000)
 130 N      0.000000    1.983513   15.459506    ( 0.0000,  0.0000,  0.0000)
 131 Li     1.829180    1.983513   15.459506    ( 0.0000,  0.0000,  0.0000)
 132 N      3.658360    1.983513   15.459506    ( 0.0000,  0.0000,  0.0000)
 133 Li     5.487540    1.983513   15.459506    ( 0.0000,  0.0000,  0.0000)
 134 Li     0.000000    3.967027   15.459506    ( 0.0000,  0.0000,  0.0000)
 135 Li     3.658360    3.967027   15.459506    ( 0.0000,  0.0000,  0.0000)
 136 Li     0.000000    5.950600   15.459506    ( 0.0000,  0.0000,  0.0000)
 137 Li     3.658360    5.950600   15.459506    ( 0.0000,  0.0000,  0.0000)
 138 N      0.000000    7.934113   15.459506    ( 0.0000,  0.0000,  0.0000)
 139 Li     1.829180    7.934113   15.459506    ( 0.0000,  0.0000,  0.0000)
 140 N      3.658360    7.934113   15.459506    ( 0.0000,  0.0000,  0.0000)
 141 Li     5.487540    7.934113   15.459506    ( 0.0000,  0.0000,  0.0000)
 142 Li     0.000000    9.917627   15.459506    ( 0.0000,  0.0000,  0.0000)
 143 Li     3.658360    9.917627   15.459506    ( 0.0000,  0.0000,  0.0000)

Unit cell:
           periodic     x           y           z      points  spacing
  1. axis:    yes    7.316720    0.000000    0.000000    36     0.2032
  2. axis:    yes    0.000000   11.901200    0.000000    60     0.1984
  3. axis:    yes    0.000000    0.000000   30.459499   150     0.2031

  Lengths:   7.316720  11.901200  30.459499
  Angles:   90.000000  90.000000  90.000000

Effective grid spacing dv^(1/3) = 0.2015

                     log10-error:    total        iterations:
           time      wfs    density  energy       fermi  poisson
iter:   1  18:38:13                -591.584313    0
iter:   2  18:38:23  -0.96  -0.50  -566.329241    0
iter:   3  18:38:33  -0.35  -0.55  -507.560657    0
iter:   4  18:38:44  -0.69  -0.83  -500.405733    0
iter:   5  18:38:54  -1.40  -1.03  -497.977526    0
iter:   6  18:39:05  -1.58  -1.28  -498.498995    10
iter:   7  18:39:15  -1.86  -1.57  -498.208032    9
iter:   8  18:39:26  -1.73  -1.50  -497.302046    10
[...]
 |N  LiLi  N  LiLi        |
 |  N N LiLi N N LiLi     |
 LiLi  N| LiLi  N    Li   |
 |Li Lii|  Li Lii         |
 | LiLi |   LiLi          |
 |N N  Li--N-N--Li--------.
 Li   N/LiLi   N LiLi    /
 | LiLi     LiLi        /
 |Lii/     Lii         /
 |N /      N          /
 Li/   Li Li    Li   /

[...]

Density initialized from wave functions
 |     Li Li    Li Li     |
 |    NN|   Li NN    Li   |
 |   Li |     Li          |
 | Li Li|   Li Li         |
 |   LiLi     LiLi        |
 Li N N LiLi N N LiLi     |
 | Li  N|   Li  N    Li   |
 |Li Lii|  Li Lii         |
 | LiLi |   LiLi          |
 |N N  Lii N N  Lii       |
 Li   NN| LiLi NN  LiLi   |
 | LiLi |   LiLi          |
 |Lii Li|  Lii Li         |
 |N  LiLi  N  LiLi        |
 |  N N LiLi N N LiLi     |
 LiLi  N| LiLi  N    Li   |
 |Li Lii|  Li Lii         |
 | LiLi |   LiLi          |
 |N N  Lii-N-N--Lii-------.
 Li   N/  Li   N   Li    /
 | LiLi     LiLi        /
 |Lii/     Lii         /
 |N /      N          /
 Li/   Li Li    Li   /

[...]

Density initialized from wave functions
 |     Li Li    Li Li     |
 |    NN|   Li NN    Li   |
 |   Li |     Li          |
 | Li Li|   Li Li         |
 |   LiLi     LiLi        |
 Li N N LiLi N N LiLi     |
 | Li  N|   Li  N    Li   |
 |Li Lii|  Li Lii         |
 | LiLi |   LiLi          |
 |N N  Lii N N  Lii       |
 Li   NN| LiLi NN  LiLi   |
 | LiLi |   LiLi          |
 |Lii Li|  Lii Li         |
 |N  LiLi  N  LiLi        |
 |  N N LiLi N N LiLi     |
 LiLi  N| LiLi  N    Li   |
 |Li Lii|  Li Lii         |
 | LiLi |   LiLi          |
 |N N  Lii-N-N--Lii-------.
 Li   N/  Li   N   Li    /
 | LiLi     LiLi        /
 |Lii/     Lii         /
 |N /      N          /
 Li/   Li Li    Li   /

[...]

Density initialized from wave functions
 |     Li Li    Li Li     |
 |    NN|   Li NN    Li   |
 |   Li |     Li          |
 | Li Li|   Li Li         |
 |   LiLi     LiLi        |
 Li N N LiLi N N LiLi     |
 | Li  N|   Li  N    Li   |
 |Li Lii|  Li Lii         |
 | LiLi |   LiLi          |
 |N N  Lii N N  Lii       |
 Li   NN| LiLi NN  LiLi   |
 | LiLi |   LiLi          |
 |Lii Li|  Lii Li         |
 |N  LiLi  N  LiLi        |
 |  N N LiLi N N LiLi     |
 LiLi  N| LiLi  N    Li   |
 |Li Lii|  Li Lii         |
 | LiLi |   LiLi          |
 |N N  Li--N-N--Li--------.
 Li   N/LiLi   N LiLi    /
 | LiLi     LiLi        /
 |Lii/     Lii         /
 |N /      N          /
 Li/   Li Li    Li   /

[...]

Density initialized from wave functions
 |     Li Li    Li Li     |
 |    NN|   Li NN    Li   |
 |   Li |     Li          |
 | Li Li|   Li Li         |
 |   LiLi     LiLi        |
 Li N N LiLi N N LiLi     |
 | Li  N|   Li  N    Li   |
 |Li Lii|  Li Lii         |
 | LiLi |   LiLi          |
 |N N  Lii N N  Lii       |
 Li   NN| LiLi NN  LiLi   |
 | LiLi |   LiLi          |
 |Lii Li|  Lii Li         |
 |N  LiLi  N  LiLi        |
 |  N N LiLi N N LiLi     |
 LiLi  N| LiLi  N    Li   |
 |Li Lii|  Li Lii         |
 | LiLi |   LiLi          |
 |N    Li--N----Li--------.
 Li N N/LiLi N N LiLi    /
 | LiLi     LiLi        /
 |Lii/     Lii         /
 |N /      N          /
 Li/   Li Li    Li   /

[...]

Density initialized from wave functions
 |     Li Li    Li Li     |
 |    NN|   Li NN    Li   |
 |   Li |     Li          |
 | Li Li|   Li Li         |
 |   LiLi     LiLi        |
 Li N N LiLi N N LiLi     |
 | Li  N|   Li  N    Li   |
 |Li Lii|  Li Lii         |
 | LiLi |   LiLi          |
 |N N  Lii N N  Lii       |
 Li   NN| LiLi NN  LiLi   |
 | LiLi |   LiLi          |
 |Lii Li|  Lii Li         |
 |N  LiLi  N  LiLi        |
 |  N N LiLi N N LiLi     |
 LiLi  N| LiLi  N    Li   |
 |Li Lii|  Li Lii         |
 | LiLi |   LiLi          |
 |N    Li--N----Li--------.
 Li N N/LiLi N N LiLi    /
 | LiLi     LiLi        /
 |Lii/     Lii         /
 |N /      N          /
 Li/   Li Li    Li   /

[...]

Density initialized from wave functions
 |     Li Li    Li Li     |
 |    NN|   Li NN    Li   |
 |   Lii|     Lii         |
 | Li   |   Li            |
 |N  LiLi  N  LiLi        |
 Li N N LiLi N N LiLi     |
 | LiLiN|   LiLiN    Li   |
 |Li  Li|  Li  Li         |
 | LiLi |   LiLi          |
 |N N  Lii N N  Lii       |
 Li   NN| LiLi NN  LiLi   |
 | LiLi |   LiLi          |
 |Lii Li|  Lii Li         |
 |N  LiLi  N  LiLi        |
 |  N N LiLi N N LiLi     |
 LiLi  N| LiLi  N    Li   |
 |Li Lii|  Li Lii         |
 | LiLi |   LiLi          |
 |N    Li--N----Li--------.
 Li N N/LiLi N N LiLi    /
 | LiLi     LiLi        /
 |Lii/     Lii         /
 |N /      N          /
 | /   Li       Li   /
 Li       Li        /

[...]

Density initialized from wave functions
 |     Li Li    Li Li     |
 |    NN|   Li NN    Li   |
 |   Li |     Li          |
 | Li Li|   Li Li         |
 |N  LiLi  N  LiLi        |
 Li N N LiLi N N LiLi     |
 | LiLiN|   LiLiN    Li   |
 |Li  Li|  Li  Li         |
 | LiLi |   LiLi          |
 |N N  Lii N N  Lii       |
 Li   NN| LiLi NN  LiLi   |
 | LiLi |   LiLi          |
 |Lii Li|  Lii Li         |
 |N  LiLi  N  LiLi        |
 |  N N LiLi N N LiLi     |
 LiLi  N| LiLi  N    Li   |
 |Li Lii|  Li Lii         |
 | LiLi |   LiLi          |
 |N    Li--N----Li--------.
 Li N N/LiLi N N LiLi    /
 | LiLi     LiLi        /
 |Lii/     Lii         /
 |N /      N          /
 | /   Li       Li   /
 Li       Li        /

[...]

System changes: positions

Initializing position-dependent things.

Density initialized from wave functions
 |     Li Li    Li Li     |
 |    NN|   Li NN    Li   |
 |   Lii|     Lii         |
 | Li   |   Li            |
 |N  LiLi  N  LiLi        |
 Li N N LiLi N N LiLi     |
 | LiLiN|   LiLiN    Li   |
 |Li  Li|  Li  Li         |
 | LiLi |   LiLi          |
 |N N  Lii N N  Lii       |
 Li   NN| LiLi NN  LiLi   |
 | LiLi |   LiLi          |
 |Lii Li|  Lii Li         |
 |N  LiLi  N  LiLi        |
 |  N N LiLi N N LiLi     |
 LiLi  N| LiLi  N    Li   |
 |Li Lii|  Li Lii         |
 | LiLi |   LiLi          |
 |N    Li--N----Li--------.
 Li N N/LiLi N N LiLi    /
 | LiLi     LiLi        /
 |Lii/     Lii         /
 |N /      N          /
 | /   Li       Li   /
 Li       Li        /

Positions:
   0 Li     0.000000    0.149619    1.096445    ( 0.0000,  0.0000,  0.0000)
   1 Li     3.658360    0.149619    1.096445    ( 0.0000,  0.0000,  0.0000)
   2 N      0.000000    1.983524    1.228032    ( 0.0000,  0.0000,  0.0000)
   3 Li     1.829180    1.983528    0.737298    ( 0.0000,  0.0000,  0.0000)
   4 N      3.658360    1.983524    1.228032    ( 0.0000,  0.0000,  0.0000)
   5 Li     5.487540    1.983528    0.737298    ( 0.0000,  0.0000,  0.0000)
   6 Li     0.000000    3.817442    1.096443    ( 0.0000,  0.0000,  0.0000)
   7 Li     3.658360    3.817442    1.096443    ( 0.0000,  0.0000,  0.0000)
   8 Li     0.000000    6.100219    1.096445    ( 0.0000,  0.0000,  0.0000)
   9 Li     3.658360    6.100219    1.096445    ( 0.0000,  0.0000,  0.0000)
  10 N      0.000000    7.934124    1.228032    ( 0.0000,  0.0000,  0.0000)
  11 Li     1.829180    7.934128    0.737298    ( 0.0000,  0.0000,  0.0000)
  12 N      3.658360    7.934124    1.228032    ( 0.0000,  0.0000,  0.0000)
  13 Li     5.487540    7.934128    0.737298    ( 0.0000,  0.0000,  0.0000)
  14 Li     0.000000    9.768042    1.096443    ( 0.0000,  0.0000,  0.0000)
  15 Li     3.658360    9.768042    1.096443    ( 0.0000,  0.0000,  0.0000)
  16 Li     0.000000    0.985733    2.969883    ( 0.0000,  0.0000,  0.0000)
  17 Li     3.658360    0.985733    2.969883    ( 0.0000,  0.0000,  0.0000)
  18 Li     0.000000    2.981324    2.969883    ( 0.0000,  0.0000,  0.0000)
  19 Li     3.658360    2.981324    2.969883    ( 0.0000,  0.0000,  0.0000)
  20 N      0.000000    4.958829    2.852310    ( 0.0000,  0.0000,  0.0000)
  21 Li     1.829180    4.958827    2.868409    ( 0.0000,  0.0000,  0.0000)
  22 N      3.658360    4.958829    2.852310    ( 0.0000,  0.0000,  0.0000)
  23 Li     5.487540    4.958827    2.868409    ( 0.0000,  0.0000,  0.0000)
  24 Li     0.000000    6.936333    2.969883    ( 0.0000,  0.0000,  0.0000)
  25 Li     3.658360    6.936333    2.969883    ( 0.0000,  0.0000,  0.0000)
  26 Li     0.000000    8.931924    2.969883    ( 0.0000,  0.0000,  0.0000)
  27 Li     3.658360    8.931924    2.969883    ( 0.0000,  0.0000,  0.0000)
  28 N      0.000000   10.909429    2.852310    ( 0.0000,  0.0000,  0.0000)
  29 Li     1.829180   10.909427    2.868409    ( 0.0000,  0.0000,  0.0000)
  30 N      3.658360   10.909429    2.852310    ( 0.0000,  0.0000,  0.0000)
  31 Li     5.487540   10.909427    2.868409    ( 0.0000,  0.0000,  0.0000)
  32 Li     0.000000    0.025632    4.824564    ( 0.0000,  0.0000,  0.0000)
  33 Li     3.658360    0.025632    4.824564    ( 0.0000,  0.0000,  0.0000)
  34 N      0.000000    1.983528    4.859061    ( 0.0000,  0.0000,  0.0000)
  35 Li     1.829180    1.983527    4.814820    ( 0.0000,  0.0000,  0.0000)
  36 N      3.658360    1.983528    4.859061    ( 0.0000,  0.0000,  0.0000)
  37 Li     5.487540    1.983527    4.814820    ( 0.0000,  0.0000,  0.0000)
  38 Li     0.000000    3.941423    4.824564    ( 0.0000,  0.0000,  0.0000)
  39 Li     3.658360    3.941423    4.824564    ( 0.0000,  0.0000,  0.0000)
  40 Li     0.000000    5.976232    4.824564    ( 0.0000,  0.0000,  0.0000)
  41 Li     3.658360    5.976232    4.824564    ( 0.0000,  0.0000,  0.0000)
  42 N      0.000000    7.934128    4.859061    ( 0.0000,  0.0000,  0.0000)
  43 Li     1.829180    7.934127    4.814820    ( 0.0000,  0.0000,  0.0000)
  44 N      3.658360    7.934128    4.859061    ( 0.0000,  0.0000,  0.0000)
  45 Li     5.487540    7.934127    4.814820    ( 0.0000,  0.0000,  0.0000)
  46 Li     0.000000    9.892023    4.824564    ( 0.0000,  0.0000,  0.0000)
  47 Li     3.658360    9.892023    4.824564    ( 0.0000,  0.0000,  0.0000)
  48 Li     0.000000    0.973125    6.703620    ( 0.0000,  0.0000,  0.0000)
  49 Li     3.658360    0.973125    6.703620    ( 0.0000,  0.0000,  0.0000)
  50 Li     0.000000    2.993930    6.703620    ( 0.0000,  0.0000,  0.0000)
  51 Li     3.658360    2.993930    6.703620    ( 0.0000,  0.0000,  0.0000)
  52 N      0.000000    4.958828    6.693865    ( 0.0000,  0.0000,  0.0000)
  53 Li     1.829180    4.958827    6.690220    ( 0.0000,  0.0000,  0.0000)
  54 N      3.658360    4.958828    6.693865    ( 0.0000,  0.0000,  0.0000)
  55 Li     5.487540    4.958827    6.690220    ( 0.0000,  0.0000,  0.0000)
  56 Li     0.000000    6.923725    6.703620    ( 0.0000,  0.0000,  0.0000)
  57 Li     3.658360    6.923725    6.703620    ( 0.0000,  0.0000,  0.0000)
  58 Li     0.000000    8.944530    6.703620    ( 0.0000,  0.0000,  0.0000)
  59 Li     3.658360    8.944530    6.703620    ( 0.0000,  0.0000,  0.0000)
[...]
 129 Li     3.658360    0.150117   16.101281    ( 0.0000,  0.0000,  0.0000)
 130 N      0.000000    1.983524   15.978862    ( 0.0000,  0.0000,  0.0000)
 131 Li     1.829180    1.983528   16.466417    ( 0.0000,  0.0000,  0.0000)
 132 N      3.658360    1.983524   15.978862    ( 0.0000,  0.0000,  0.0000)
 133 Li     5.487540    1.983528   16.466417    ( 0.0000,  0.0000,  0.0000)
 134 Li     0.000000    3.816944   16.101283    ( 0.0000,  0.0000,  0.0000)
 135 Li     3.658360    3.816944   16.101283    ( 0.0000,  0.0000,  0.0000)
 136 Li     0.000000    6.100717   16.101281    ( 0.0000,  0.0000,  0.0000)
 137 Li     3.658360    6.100717   16.101281    ( 0.0000,  0.0000,  0.0000)
 138 N      0.000000    7.934124   15.978861    ( 0.0000,  0.0000,  0.0000)
 139 Li     1.829180    7.934128   16.466417    ( 0.0000,  0.0000,  0.0000)
 140 N      3.658360    7.934124   15.978861    ( 0.0000,  0.0000,  0.0000)
 141 Li     5.487540    7.934128   16.466417    ( 0.0000,  0.0000,  0.0000)
 142 Li     0.000000    9.767544   16.101283    ( 0.0000,  0.0000,  0.0000)
 143 Li     3.658360    9.767544   16.101283    ( 0.0000,  0.0000,  0.0000)

Unit cell:
           periodic     x           y           z      points  spacing
  1. axis:    yes    7.316720    0.000000    0.000000    36     0.2032
  2. axis:    yes    0.000000   11.901200    0.000000    60     0.1984
  3. axis:    yes    0.000000    0.000000   30.459499   150     0.2031

  Lengths:   7.316720  11.901200  30.459499
  Angles:   90.000000  90.000000  90.000000

Effective grid spacing dv^(1/3) = 0.2015

                     log10-error:    total        iterations:
           time      wfs    density  energy       fermi  poisson
iter:   1  20:24:11  -3.65         -505.329379    0
iter:   2  20:24:20  -5.02  -2.82  -505.326233    0
iter:   3  20:24:30  -4.44  -2.89  -505.321944    0
iter:   4  20:24:39  -5.85  -3.23  -505.321539    0
iter:   5  20:24:49  -5.57  -3.36  -505.321533    0
iter:   6  20:24:58  -5.88  -3.55  -505.321386    0
iter:   7  20:25:08  -6.73  -3.70  -505.321349    0
iter:   8  20:25:18  -7.36  -3.90  -505.321348    0
iter:   9  20:25:27  -7.03  -4.01  -505.321354    0
iter:  10  20:25:37  -7.05  -4.13  -505.321348    0
iter:  11  20:25:46  -8.28  -4.40  -505.321346    0

Converged after 11 iterations.

Dipole moment: (-0.000000, -9.942277, -47.417239) |e|*Ang

Energy contributions relative to reference atoms: (reference = -75243.058738)

Kinetic:       +574.800413
Potential:     -394.300281
External:        +0.000000
XC:            -682.362760
Entropy (-ST):   -0.000000
Local:           -3.458717
Free energy:   -505.321346
Extrapolated:  -505.321346

Fermi level: -0.13971

Showing all kpts
 Kpt  Band  Eigenvalues  Occupancy
  0   142     -0.69654    0.66667
  0   143     -0.62611    0.66667
  0   144      0.27739    0.00000
  0   145      0.40870    0.00000

  1   142     -0.80767    1.33333
  1   143     -0.73844    1.33333
  1   144      0.70830    0.00000
  1   145      0.75746    0.00000

Gap: 0.904 eV
Transition (v -> c):
  (s=0, k=0, n=143, [0.00, 0.25, 0.00]) -> (s=0, k=0, n=144, [0.00, 0.25, 0.00])

Forces in eV/Ang:
  0 Li    0.00000   -0.00236   -0.02748
  1 Li    0.00000   -0.00236   -0.02748
  2 N     0.00000    0.00011    0.01592
  3 Li    0.00000   -0.00000    0.04124
  4 N     0.00000    0.00011    0.01592
  5 Li   -0.00000   -0.00000    0.04124
  6 Li    0.00000    0.00227   -0.02747
  7 Li    0.00000    0.00227   -0.02747
  8 Li    0.00000   -0.00236   -0.02748
  9 Li    0.00000   -0.00236   -0.02748
 10 N     0.00000    0.00011    0.01595
 11 Li    0.00000   -0.00000    0.04123
 12 N     0.00000    0.00011    0.01595
 13 Li   -0.00000   -0.00000    0.04123
 14 Li    0.00000    0.00227   -0.02747
 15 Li    0.00000    0.00227   -0.02747
 16 Li    0.00000    0.00809    0.02157
 17 Li    0.00000    0.00809    0.02157
 18 Li    0.00000   -0.00810    0.02156
 19 Li    0.00000   -0.00810    0.02156
 20 N     0.00000   -0.00000   -0.00145
 21 Li    0.00000    0.00000   -0.02019
 22 N     0.00000   -0.00000   -0.00145
 23 Li   -0.00000    0.00000   -0.02019
 24 Li    0.00000    0.00809    0.02158
 25 Li    0.00000    0.00809    0.02158
 26 Li    0.00000   -0.00809    0.02156
 27 Li    0.00000   -0.00809    0.02156
 28 N     0.00000   -0.00002   -0.00145
 29 Li    0.00000    0.00000   -0.02019
 30 N     0.00000   -0.00002   -0.00145
 31 Li   -0.00000    0.00000   -0.02019
 32 Li    0.00000   -0.01558    0.02200
 33 Li    0.00000   -0.01558    0.02200
 34 N     0.00000    0.00000   -0.00324
 35 Li    0.00000   -0.00000    0.00879
 36 N     0.00000    0.00000   -0.00324
 37 Li   -0.00000   -0.00000    0.00879
 38 Li    0.00000    0.01558    0.02200
 39 Li    0.00000    0.01558    0.02200
 40 Li    0.00000   -0.01558    0.02200
 41 Li    0.00000   -0.01558    0.02200
 42 N     0.00000    0.00000   -0.00322
 43 Li    0.00000    0.00000    0.00879
 44 N     0.00000    0.00000   -0.00322
 45 Li   -0.00000    0.00000    0.00879
 46 Li    0.00000    0.01558    0.02200
 47 Li    0.00000    0.01558    0.02200
 48 Li    0.00000    0.00305    0.02501
 49 Li    0.00000    0.00305    0.02501
 50 Li    0.00000   -0.00305    0.02501
 51 Li    0.00000   -0.00305    0.02501
 52 N     0.00000    0.00000   -0.00042
 53 Li   -0.00000    0.00000    0.02496
 54 N     0.00000    0.00000   -0.00042
 55 Li    0.00000    0.00000    0.02496
 56 Li    0.00000    0.00305    0.02501
 57 Li    0.00000    0.00305    0.02501
 58 Li    0.00000   -0.00305    0.02501
 59 Li    0.00000   -0.00305    0.02501
[...]
129 Li    0.00000   -0.00469    0.02760
130 N     0.00000    0.00011    0.01083
131 Li   -0.00000   -0.00000   -0.03636
132 N     0.00000    0.00011    0.01083
133 Li    0.00000   -0.00000   -0.03636
134 Li    0.00000    0.00460    0.02759
135 Li    0.00000    0.00460    0.02759
136 Li    0.00000   -0.00469    0.02760
137 Li    0.00000   -0.00469    0.02760
138 N     0.00000    0.00011    0.01081
139 Li    0.00000   -0.00000   -0.03636
140 N     0.00000    0.00011    0.01081
141 Li   -0.00000   -0.00000   -0.03636
142 Li    0.00000    0.00460    0.02759
143 Li    0.00000    0.00460    0.02759