User:   jywang@lbnode01
Date:   Sun Jul 25 22:20:43 2021
Arch:   x86_64
Pid:    253008
Python: 3.7.4
gpaw:   /home/jywang/intel/intelpython3/lib/python3.7/site-packages/gpaw
_gpaw:  /home/jywang/intel/intelpython3/lib/python3.7/site-packages/
        _gpaw.cpython-37m-x86_64-linux-gnu.so
ase:    /home/jywang/intel/intelpython3/lib/python3.7/site-packages/ase (version 3.19.0)
numpy:  /home/jywang/intel/intelpython3/lib/python3.7/site-packages/numpy (version 1.17.4)
scipy:  /home/jywang/intel/intelpython3/lib/python3.7/site-packages/scipy (version 1.3.2)
units:  Angstrom and eV
cores: 32
OMP_NUM_THREADS: 1

Input parameters:
  convergence: {eigenstates: 1e-08}
  kpts: [3 2 1]
  mode: {ecut: 450.00000000000006,
         gammacentered: False,
         name: pw}
  occupations: {name: fermi-dirac,
                width: 0.01}
  random: True
  xc: PBE

System changes: positions, numbers, cell, pbc, initial_charges, initial_magmoms

Initialize ...

Li-setup:
  name: Lithium
  id: 830b4218f175192f93f959cfc0aad614
  Z: 3
  valence: 1
  core: 2
  charge: 0.0
  file: /home/jywang/gpaw_paws/gpaw-setups-0.9.20000/Li.PBE.gz
  compensation charges: gauss, rc=0.33, lmax=2
  cutoffs: 1.91(filt), 2.55(core),
  valence states:
                energy  radius
    2s(1.00)    -2.874   1.058
    2p(0.00)    -1.090   1.058
    *s          24.337   1.058

  Using partial waves for Li as LCAO basis

N-setup:
  name: Nitrogen
  id: f7500608b86eaa90eef8b1d9a670dc53
  Z: 7
  valence: 5
  core: 2
  charge: 0.0
  file: /home/jywang/gpaw_paws/gpaw-setups-0.9.20000/N.PBE.gz
  compensation charges: gauss, rc=0.18, lmax=2
  cutoffs: 1.11(filt), 0.96(core),
  valence states:
                energy  radius
    2s(2.00)   -18.583   0.603
    2p(3.00)    -7.089   0.529
    *s           8.629   0.603
    *p          20.123   0.529
    *d           0.000   0.577

  Using partial waves for N as LCAO basis

Reference energy: -42004.487119

Spin-paired calculation

Occupation numbers:
  Fermi-Dirac: width=0.0100 eV

Convergence criteria:
  Maximum total energy change: 0.0005 eV / electron
  Maximum integral of absolute density change: 0.0001 electrons
  Maximum integral of absolute eigenstate change: 1e-08 eV^2
  Maximum number of iterations: 333

Symmetries present (total): 1

  ( 1  0  0)
  ( 0  1  0)
  ( 0  0  1)

6 k-points: 3 x 2 x 1 Monkhorst-Pack grid
3 k-points in the irreducible part of the Brillouin zone
       k-points in crystal coordinates                weights
   0:     0.00000000    0.25000000    0.00000000          2/6
   1:     0.33333333   -0.25000000    0.00000000          2/6
   2:     0.33333333    0.25000000    0.00000000          2/6

Wave functions: Plane wave expansion
  Cutoff energy: 450.000 eV
  Number of coefficients (min, max): 31489, 31532
  Pulay-stress correction: 0.000000 eV/Ang^3 (de/decut=0.000000)
  Using FFTW library
  ScaLapack parameters: grid=1x1, blocksize=None
  Wavefunction extrapolation:
    Improved wavefunction reuse through dual PAW basis

Eigensolver
   Davidson(niter=2, smin=None, normalize=True)

Densities:
  Coarse grid: 35*36*144 grid
  Fine grid: 70*72*288 grid
  Total Charge: 0.000000

Density mixing:
  Method: separate
  Backend: pulay
  Linear mixing parameter: 0.05
  Mixing with 5 old densities
  Damping of long wave oscillations: 50

Hamiltonian:
  XC and Coulomb potentials evaluated on a 70*72*288 grid
  Using the PBE Exchange-Correlation functional

XC parameters: PBE with 2 nearest neighbor stencil

Total number of cores used: 32
Domain decomposition: 2 x 2 x 8

Number of atoms: 81
Number of atomic orbitals: 324
Number of bands in calculation: 101
Number of valence electrons: 161
Bands to converge: occupied

... initialized

Initializing position-dependent things.

Density initialized from atomic densities
Creating initial wave functions:
  101 bands from LCAO basis set

 |   |          Li    |
 |   |  Li Li    Li Li|
 |   | N        N     |
 |   |Li LiLi  Li LiLi|
 |   N        N       |
 |   | LiLi Li  LiLi Li
 |   |     N        N |
 |   Li   Li  Li   Li |
 |   | LiN      LiN   |
 |   |  Li Li    Li Li|
 |   LiN      LiN     |
 |   |Li Li    Li Li  |
 |   N     Li N     Li|
 |   | Li   Li  Li   Li
 |   |   LiN      LiN |
 |   Li   Li  Li   Li |
 |   | LiN      LiN   |
 |   |     Li       Li|
 |   LiNLi    LiNLi   |
 |   |   Li       Li  |
 |   NLi   Li NLi   Li|
 |   |   Li       Li  |

Positions:
   0 Li     3.435275    0.000000    6.598843    ( 0.0000,  0.0000,  0.0000)
   1 Li     6.870825    0.000000    6.599421    ( 0.0000,  0.0000,  0.0000)
   2 Li     3.435275    3.658360    6.598843    ( 0.0000,  0.0000,  0.0000)
   3 Li     6.870825    3.658360    6.599421    ( 0.0000,  0.0000,  0.0000)
   4 Li     1.718187    1.829180    7.583766    ( 0.0000,  0.0000,  0.0000)
   5 Li     5.152363    1.829180    7.583766    ( 0.0000,  0.0000,  0.0000)
   6 Li     1.718187    5.487540    7.583766    ( 0.0000,  0.0000,  0.0000)
   7 Li     5.152363    5.487540    7.583766    ( 0.0000,  0.0000,  0.0000)
   8 Li     3.435275    0.000000    8.718815    ( 0.0000,  0.0000,  0.0000)
   9 Li     6.870825    0.000000    8.718236    ( 0.0000,  0.0000,  0.0000)
  10 Li     3.435275    3.658360    8.718815    ( 0.0000,  0.0000,  0.0000)
  11 Li     6.870825    3.658360    8.718236    ( 0.0000,  0.0000,  0.0000)
  12 Li     1.717500    0.000000    9.900144    ( 0.0000,  0.0000,  0.0000)
  13 Li     5.153050    0.000000    9.900144    ( 0.0000,  0.0000,  0.0000)
  14 Li     1.717500    3.658360    9.900144    ( 0.0000,  0.0000,  0.0000)
  15 Li     5.153050    3.658360    9.900144    ( 0.0000,  0.0000,  0.0000)
  16 Li     3.435275    1.829180   10.960564    ( 0.0000,  0.0000,  0.0000)
  17 Li     6.870825    1.829180   10.960853    ( 0.0000,  0.0000,  0.0000)
  18 Li     3.435275    5.487540   10.960564    ( 0.0000,  0.0000,  0.0000)
  19 Li     6.870825    5.487540   10.960853    ( 0.0000,  0.0000,  0.0000)
  20 Li     1.717569    0.000000   12.007100    ( 0.0000,  0.0000,  0.0000)
  21 Li     5.153050    0.000000   12.007100    ( 0.0000,  0.0000,  0.0000)
  22 Li     1.717569    3.658360   12.007100    ( 0.0000,  0.0000,  0.0000)
  23 Li     5.153050    3.658360   12.007100    ( 0.0000,  0.0000,  0.0000)
  24 Li     3.435344    0.000000   13.180330    ( 0.0000,  0.0000,  0.0000)
  25 Li     6.870894    0.000000   13.180909    ( 0.0000,  0.0000,  0.0000)
  26 Li     3.435344    3.658360   13.180330    ( 0.0000,  0.0000,  0.0000)
  27 Li     6.870894    3.658360   13.180909    ( 0.0000,  0.0000,  0.0000)
  28 Li     1.718462    1.829180   14.234386    ( 0.0000,  0.0000,  0.0000)
  29 Li     5.152226    1.829180   14.234386    ( 0.0000,  0.0000,  0.0000)
  30 Li     1.718462    5.487540   14.234386    ( 0.0000,  0.0000,  0.0000)
  31 Li     5.152226    5.487540   14.234386    ( 0.0000,  0.0000,  0.0000)
  32 Li     3.435344    0.000000   15.285550    ( 0.0000,  0.0000,  0.0000)
  33 Li     6.870894    0.000000   15.285260    ( 0.0000,  0.0000,  0.0000)
  34 Li     3.435344    3.658360   15.285550    ( 0.0000,  0.0000,  0.0000)
  35 Li     6.870894    3.658360   15.285260    ( 0.0000,  0.0000,  0.0000)
  36 Li     1.717638    0.000000   16.450681    ( 0.0000,  0.0000,  0.0000)
  37 Li     5.153119    0.000000   16.450681    ( 0.0000,  0.0000,  0.0000)
  38 Li     1.717638    3.658360   16.450681    ( 0.0000,  0.0000,  0.0000)
  39 Li     5.153119    3.658360   16.450681    ( 0.0000,  0.0000,  0.0000)
  40 Li     3.435344    1.829180   17.496927    ( 0.0000,  0.0000,  0.0000)
  41 Li     6.870963    1.829180   17.496638    ( 0.0000,  0.0000,  0.0000)
  42 Li     3.435344    5.487540   17.496927    ( 0.0000,  0.0000,  0.0000)
  43 Li     6.870963    5.487540   17.496638    ( 0.0000,  0.0000,  0.0000)
  44 Li     1.717638    0.000000   18.552140    ( 0.0000,  0.0000,  0.0000)
  45 Li     5.153119    0.000000   18.552140    ( 0.0000,  0.0000,  0.0000)
  46 Li     1.717638    3.658360   18.552140    ( 0.0000,  0.0000,  0.0000)
  47 Li     5.153119    3.658360   18.552140    ( 0.0000,  0.0000,  0.0000)
  48 Li     3.435413    0.000000   19.713222    ( 0.0000,  0.0000,  0.0000)
  49 Li     6.870963    0.000000   19.713800    ( 0.0000,  0.0000,  0.0000)
  50 Li     3.435413    3.658360   19.713222    ( 0.0000,  0.0000,  0.0000)
  51 Li     6.870963    3.658360   19.713800    ( 0.0000,  0.0000,  0.0000)
  52 Li     1.718325    1.829180   20.847403    ( 0.0000,  0.0000,  0.0000)
  53 Li     5.152500    1.829180   20.847403    ( 0.0000,  0.0000,  0.0000)
  54 Li     1.718325    5.487540   20.847403    ( 0.0000,  0.0000,  0.0000)
  55 Li     5.152500    5.487540   20.847403    ( 0.0000,  0.0000,  0.0000)
  56 Li     6.870963    0.000000   21.829433    ( 0.0000,  0.0000,  0.0000)
  57 Li     3.435413    0.000000   21.830012    ( 0.0000,  0.0000,  0.0000)
  58 Li     6.870963    3.658360   21.829433    ( 0.0000,  0.0000,  0.0000)
  59 Li     3.435413    3.658360   21.830012    ( 0.0000,  0.0000,  0.0000)
[...]
  66 N      3.435275    3.658360   10.956225    ( 0.0000,  0.0000,  0.0000)
  67 N      6.870825    3.658360   10.956515    ( 0.0000,  0.0000,  0.0000)
  68 N      1.719424    0.000000   14.234965    ( 0.0000,  0.0000,  0.0000)
  69 N      5.151195    0.000000   14.234965    ( 0.0000,  0.0000,  0.0000)
  70 N      1.719424    3.658360   14.234965    ( 0.0000,  0.0000,  0.0000)
  71 N      5.151195    3.658360   14.234965    ( 0.0000,  0.0000,  0.0000)
  72 N      3.435344    0.000000   17.498373    ( 0.0000,  0.0000,  0.0000)
  73 N      6.870963    0.000000   17.498373    ( 0.0000,  0.0000,  0.0000)
  74 N      3.435344    3.658360   17.498373    ( 0.0000,  0.0000,  0.0000)
  75 N      6.870963    3.658360   17.498373    ( 0.0000,  0.0000,  0.0000)
  76 N      1.719493    0.000000   20.748187    ( 0.0000,  0.0000,  0.0000)
  77 N      5.151264    0.000000   20.748187    ( 0.0000,  0.0000,  0.0000)
  78 N      1.719493    3.658360   20.748187    ( 0.0000,  0.0000,  0.0000)
  79 N      5.151264    3.658360   20.748187    ( 0.0000,  0.0000,  0.0000)
  80 Li     5.330297    4.093968   23.033701    ( 0.0000,  0.0000,  0.0000)

Unit cell:
           periodic     x           y           z      points  spacing
  1. axis:    yes    6.871100    0.000000    0.000000    35     0.1963
  2. axis:    yes    0.000000    7.316720    0.000000    36     0.2032
  3. axis:    yes    0.000000    0.000000   28.925800   144     0.2009

  Lengths:   6.871100   7.316720  28.925800
  Angles:   90.000000  90.000000  90.000000

Effective grid spacing dv^(1/3) = 0.2001

                     log10-error:    total        iterations:
           time      wfs    density  energy       fermi  poisson
iter:   1  22:21:03                -333.654539    1
iter:   2  22:21:08  -0.97  -0.50  -319.252857    35
iter:   3  22:21:12  -0.38  -0.56  -290.041698    4
iter:   4  22:21:16  -1.02  -0.82  -286.887356    31
iter:   5  22:21:21  -1.39  -0.95  -287.005360    36
iter:   6  22:21:25  -1.74  -1.20  -285.067479    36
iter:   7  22:21:29  -1.76  -1.46  -284.660742    34
iter:   8  22:21:34  -2.26  -1.62  -284.436971    34
iter:   9  22:21:38  -3.22  -1.87  -284.409468    31
iter:  10  22:21:42  -3.36  -1.90  -284.397692    33
[...]
 |   | LiN      LiN   |
 |   |     Li       Li|
 |   LiNLi    LiNLi   |
 |   |   Li       Li  |
 |   NLi   Li NLi   Li|
 |   |   Li       Li  |

[...]

Density initialized from wave functions
 |   Li      Li Li    |
 |   |   N            |
 |  Li  Li Li   NLi   |
 |   | N              |
 |   |Li Li Li Li   Li|
 |   |        N       |
 |   | Li Li Li LiLi Li
 |   |      N       N |
 |Li |    Li  Li      |
 |   | LiN      LiN   |
 |   |  Li Li    Li Li|
 |   LiN      LiN     |
 |   |Li Li    Li Li  |
 |   N     Li N     Li|
 |   | Li   Li  Li   Li
 |   |   LiN      LiN |
 |   Li   Li  Li   Li |
 |   | LiN      LiN   |
 |   |     Li       Li|
 |   LiNLi    LiNLi   |
 |   |   Li       Li  |
 |   NLi   Li NLi   Li|
 |   |   Li       Li  |

[...]

Density initialized from wave functions
 |   Li      Li Li    |
 |   |   N            |
 |  Li  Li Li   NLi   |
 |   | N              |
 |   |Li Li Li Li   Li|
 |   |        N       |
 |   | Li Li Li LiLi Li
 |   |      N       N |
 |Li |    Li  Li      |
 |   | LiN      LiN   |
 |   |  Li Li    Li Li|
 |   LiN      LiN     |
 |   |Li Li    Li Li  |
 |   N     Li N     Li|
 |   | Li   Li  Li   Li
 |   |   LiN      LiN |
 |   Li   Li  Li   Li |
 |   | LiN      LiN   |
 |   |     Li       Li|
 |   LiNLi    LiNLi   |
 |   |   Li       Li  |
 |   NLi   Li NLi   Li|
 |   |   Li       Li  |

[...]

Density initialized from wave functions
 |   Li      Li Li    |
 |   |   N            |
 |  Li  Li Li   NLi   |
 |   | N              |
 |   |Li Li Li Li   Li|
 |   |       NN       |
 |   | Li Li Li LiLi Li
 |   |      N       N |
 |Li |    Li  Li      |
 |   | Li       LiN   |
 |   |  Li Li    Li Li|
 |   LiN      LiN     |
 |   |Li Li    Li Li  |
 |   N     Li N     Li|
 |   | Li   Li  Li   Li
 |   |   LiN      LiN |
 |   Li   Li  Li   Li |
 |   | LiN      LiN   |
 |   |     Li       Li|
 |   LiNLi    LiNLi   |
 |   |   Li       Li  |
 |   NLi   Li NLi   Li|
 |   |   Li       Li  |

[...]

Density initialized from wave functions
 |   Li      Li Li    |
 |   |   N            |
 |  Li  Li Li   NLi   |
 |   | N              |
 |   |Li Li Li Li   Li|
 |   |       NN       |
 |   | Li Li Li LiLi Li
 |   |      N       N |
 |Li |    Li  Li      |
 |   | Li       LiN   |
 |   |  Li Li    Li Li|
 |   LiN      LiN     |
 |   |Li Li    Li Li  |
 |   N     Li N     Li|
 |   | Li   Li  Li   Li
 |   |   LiN      LiN |
 |   Li   Li  Li   Li |
 |   | LiN      LiN   |
 |   |     Li       Li|
 |   LiNLi    LiNLi   |
 |   |   Li       Li  |
 |   NLi   Li NLi   Li|
 |   |   Li       Li  |

[...]

Density initialized from wave functions
 |   Li      Li Li    |
 |   |   N            |
 |  Li  Li Li   NLi   |
 |   | N              |
 |   |Li Li Li Li   Li|
 |   |       NN       |
 |   | Li Li Li LiLi Li
 |   |      N       N |
 |Li | Li Li  Li      |
 N   |          Li    |
 |   |  Li Li    Li Li|
 |   LiN      LiN     |
 |   |Li Li    Li Li  |
 |   N     Li N     Li|
 |   | Li   Li  Li   Li
 |   |   LiN      LiN |
 |   Li   Li  Li   Li |
 |   | LiN      LiN   |
 |   |     Li       Li|
 |   LiNLi    LiNLi   |
 |   |   Li       Li  |
 |   NLi   Li NLi   Li|
 |   |   Li       Li  |

[...]

Density initialized from wave functions
 |   Li      Li Li    |
 |   |   N            |
 |  Li  Li Li   NLi   |
 |   | N              |
 |   |Li Li Li Li   Li|
 |   N       NN       |
 |   | Li Li Li LiLi Li
 |   |      N       N |
 |Li | Li Li  Li      |
 |   |          Li    |
 |   |  Li Li    Li Li|
 |   LiN      LiN     |
 |   |Li Li    Li Li  |
 |   N     Li N     Li|
 |   | Li   Li  Li   Li
 |   |   LiN      LiN |
 |   Li   Li  Li   Li |
 |   | LiN      LiN   |
 |   |     Li       Li|
 |   LiNLi    LiNLi   |
 |   |   Li       Li  |
 |   NLi   Li NLi   Li|
 |   |   Li       Li  |

[...]

Density initialized from wave functions
 |   Li      Li Li    |
 |   |   N            |
 |  Li  Li Li   NLi   |
 |   | N              |
 |   |Li Li Li Li   Li|
 |   N        N       |
 |   | Li Li Li LiLi Li
 |   |      N       N |
 |Li | Li Li  Li      |
 |   |          Li    |
 |   |  Li Li    Li Li|
 |   LiN      LiN     |
 |   |Li Li    Li Li  |
 |   N     Li N     Li|
 |   | Li   Li  Li   Li
 |   |   LiN      LiN |
 |   Li   Li  Li   Li |
 |   | LiN      LiN   |
 |   |     Li       Li|
 |   LiNLi    LiNLi   |
 |   |   Li       Li  |
 |   NLi   Li NLi   Li|
 |   |   Li       Li  |

[...]

Density initialized from wave functions
 |   Li      Li Li    |
 |   |   N            |
 |  Li  Li Li   NLi   |
 |   | N              |
 |   |Li Li Li Li   Li|
 |   N        N       |
 |   | Li Li Li LiLi Li
 |   |      N       N |
 |Li | Li Li  Li      |
 |   |          Li    |
 |   |  Li Li    Li Li|
 |   LiN      LiN     |
 |   |Li Li    Li Li  |
 |   N     Li N     Li|
 |   | Li   Li  Li   Li
 |   |   LiN      LiN |
 |   Li   Li  Li   Li |
 |   | LiN      LiN   |
 |   |     Li       Li|
 |   LiNLi    LiNLi   |
 |   |   Li       Li  |
 |   NLi   Li NLi   Li|
 |   |   Li       Li  |

[...]

Density initialized from wave functions
 |   Li      Li Li    |
 |   |   N            |
 |  Li  Li Li   NLi   |
 |   | N              |
 |   |Li Li Li Li   Li|
 |   N        N       |
 |   | Li Li Li LiLi Li
 |   |   Li N       N |
 |Li | Li Li  Li      |
 |   |          Li    |
 |   |  Li Li    Li Li|
 |   | N      LiN     |
 |   |Li Li    Li Li  |
 |   N     Li N     Li|
 |   | Li   Li  Li   Li
 |   |   LiN      LiN |
 |   Li   Li  Li   Li |
 |   | LiN      LiN   |
 |   |     Li       Li|
 |   LiNLi    LiNLi   |
 |   |   Li       Li  |
 |   NLi   Li NLi   Li|
 |   |   Li       Li  |

[...]

Converged after 12 iterations.

Dipole moment: (-0.640618, 1.663762, -0.877684) |e|*Ang

Energy contributions relative to reference atoms: (reference = -42004.487119)

Kinetic:       +301.816716
Potential:     -209.345473
External:        +0.000000
XC:            -375.926240
Entropy (-ST):   -0.007497
Local:           -1.854739
Free energy:   -285.317232
Extrapolated:  -285.313484

Fermi level: 0.45637

Showing only first 2 kpts
 Kpt  Band  Eigenvalues  Occupancy
  0    78     -0.42320    0.66667
  0    79     -0.29596    0.66667
  0    80      0.23552    0.66667
  0    81      0.93660    0.00000

  1    78     -0.69430    0.66667
  1    79     -0.68178    0.66667
  1    80      0.46767    0.16279
  1    81      1.21042    0.00000

No gap

Forces in eV/Ang:
  0 Li   -0.00011   -0.00001   -0.04528
  1 Li   -0.00008   -0.00001   -0.04477
  2 Li   -0.00010    0.00000   -0.04550
  3 Li   -0.00009    0.00000   -0.04499
  4 Li    0.00075   -0.00057    0.03601
  5 Li   -0.00076   -0.00051    0.03595
  6 Li    0.00075    0.00054    0.03595
  7 Li   -0.00077    0.00056    0.03589
  8 Li   -0.00004    0.00005   -0.02976
  9 Li   -0.00016    0.00005   -0.02998
 10 Li    0.00004   -0.00015   -0.03167
 11 Li   -0.00025   -0.00016   -0.03189
 12 Li    0.00026    0.00002   -0.00310
 13 Li   -0.00029    0.00022   -0.00341
 14 Li    0.00024   -0.00008   -0.00576
 15 Li   -0.00030   -0.00030   -0.00621
 16 Li   -0.00053   -0.00422   -0.04301
 17 Li    0.00058   -0.00420   -0.04330
 18 Li   -0.00172    0.00391   -0.04179
 19 Li    0.00177    0.00389   -0.04204
 20 Li    0.00081   -0.00135   -0.01399
 21 Li   -0.00057    0.00066   -0.01745
 22 Li    0.00059    0.00270   -0.02761
 23 Li   -0.00063    0.00092   -0.03256
 24 Li   -0.00351   -0.00079   -0.00743
 25 Li    0.00338   -0.00092   -0.00578
 26 Li   -0.00804    0.00177   -0.02099
 27 Li    0.00728    0.00186   -0.01972
 28 Li    0.00027   -0.00500    0.02311
 29 Li   -0.00092   -0.01845   -0.03819
 30 Li   -0.00052    0.02173   -0.03939
 31 Li   -0.00007    0.04695   -0.03807
 32 Li   -0.01183   -0.02551   -0.01716
 33 Li    0.04049   -0.03321   -0.01503
 34 Li   -0.17453   -0.06413   -0.05290
 35 Li    0.16423   -0.05887   -0.05650
 36 Li   -0.01501   -0.02763   -0.02925
 37 Li   -0.00570    0.02949    0.04831
 38 Li    0.00854    0.02106    0.00979
 39 Li    0.00769   -0.00209    0.05052
 40 Li   -0.04250   -0.01504   -0.03085
 41 Li    0.05043   -0.01481   -0.01514
 42 Li    0.03258   -0.00989    0.03223
 43 Li   -0.02336   -0.01013    0.02566
 44 Li   -0.00878   -0.03102    0.01016
 45 Li   -0.00495    0.01123    0.03068
 46 Li   -0.01311   -0.00674   -0.03325
 47 Li    0.00674   -0.06614   -0.05741
 48 Li    0.00493   -0.00954    0.02882
 49 Li   -0.01117   -0.00121    0.01153
 50 Li    0.08376    0.02842    0.02573
 51 Li   -0.08797    0.03693    0.00729
 52 Li    0.00323   -0.00637    0.01573
 53 Li    0.00191    0.10749   -0.01325
 54 Li    0.00189    0.08498   -0.01492
 55 Li    0.00026   -0.03277   -0.08160
 56 Li    0.04926   -0.01336    0.00467
 57 Li   -0.04404   -0.01819   -0.00435
 58 Li   -0.06670   -0.00837    0.02451
 59 Li    0.04035    0.00253    0.01638
[...]
 66 N     0.00351   -0.00203    0.05085
 67 N    -0.00329   -0.00205    0.05029
 68 N     0.00677   -0.01457   -0.01117
 69 N    -0.00031    0.03051   -0.01186
 70 N     0.00184    0.05363    0.13798
 71 N    -0.00254    0.02432    0.14332
 72 N    -0.01223   -0.01393    0.02235
 73 N    -0.00439   -0.01769    0.02217
 74 N     0.01462   -0.01030   -0.00937
 75 N     0.00263   -0.01152   -0.00972
 76 N     0.00755    0.00806    0.04204
 77 N    -0.00474    0.03533    0.03746
 78 N     0.02449    0.02437    0.03303
 79 N     0.02784    0.00594   -0.04559
 80 Li   -0.02102   -0.03223   -0.04392

System changes: positions

Initializing position-dependent things.

Density initialized from wave functions
 |   Li      Li Li    |
 |   |   N            |
 |  Li  Li Li   NLi   |
 |   | N              |
 |   |Li Li Li Li   Li|
 |   N        N       |
 |   | Li Li Li LiLi Li
 |   |   Li N       N |
 |Li | Li Li  Li      |
 |   |          Li    |
 |   |  Li Li    Li Li|
 |   | N      LiN     |
 |   |Li Li    Li Li  |
 |   N     Li N     Li|
 |   | Li   Li  Li   Li
 |   |   LiN      LiN |
 |   Li   Li  Li   Li |
 |   | LiN      LiN   |
 |   |     Li       Li|
 |   LiNLi    LiNLi   |
 |   |   Li       Li  |
 |   NLi   Li NLi   Li|
 |   |   Li       Li  |

Positions:
   0 Li     3.435275    0.000000    6.598843    ( 0.0000,  0.0000,  0.0000)
   1 Li     6.870825    0.000000    6.599421    ( 0.0000,  0.0000,  0.0000)
   2 Li     3.435275    3.658360    6.598843    ( 0.0000,  0.0000,  0.0000)
   3 Li     6.870825    3.658360    6.599421    ( 0.0000,  0.0000,  0.0000)
   4 Li     1.718187    1.829180    7.583766    ( 0.0000,  0.0000,  0.0000)
   5 Li     5.152363    1.829180    7.583766    ( 0.0000,  0.0000,  0.0000)
   6 Li     1.718187    5.487540    7.583766    ( 0.0000,  0.0000,  0.0000)
   7 Li     5.152363    5.487540    7.583766    ( 0.0000,  0.0000,  0.0000)
   8 Li     3.435275    0.000000    8.718815    ( 0.0000,  0.0000,  0.0000)
   9 Li     6.870825    0.000000    8.718236    ( 0.0000,  0.0000,  0.0000)
  10 Li     3.435275    3.658360    8.718815    ( 0.0000,  0.0000,  0.0000)
  11 Li     6.870825    3.658360    8.718236    ( 0.0000,  0.0000,  0.0000)
  12 Li     1.717500    0.000000    9.900144    ( 0.0000,  0.0000,  0.0000)
  13 Li     5.153050    0.000000    9.900144    ( 0.0000,  0.0000,  0.0000)
  14 Li     1.717500    3.658360    9.900144    ( 0.0000,  0.0000,  0.0000)
  15 Li     5.153050    3.658360    9.900144    ( 0.0000,  0.0000,  0.0000)
  16 Li     3.435275    1.829180   10.960564    ( 0.0000,  0.0000,  0.0000)
  17 Li     6.870825    1.829180   10.960853    ( 0.0000,  0.0000,  0.0000)
  18 Li     3.435275    5.487540   10.960564    ( 0.0000,  0.0000,  0.0000)
  19 Li     6.870825    5.487540   10.960853    ( 0.0000,  0.0000,  0.0000)
  20 Li     1.717569    0.000000   12.007100    ( 0.0000,  0.0000,  0.0000)
  21 Li     5.153050    0.000000   12.007100    ( 0.0000,  0.0000,  0.0000)
  22 Li     1.717569    3.658360   12.007100    ( 0.0000,  0.0000,  0.0000)
  23 Li     5.153050    3.658360   12.007100    ( 0.0000,  0.0000,  0.0000)
  24 Li     3.435344    0.000000   13.180330    ( 0.0000,  0.0000,  0.0000)
  25 Li     6.870894    0.000000   13.180909    ( 0.0000,  0.0000,  0.0000)
  26 Li     3.435344    3.658360   13.180330    ( 0.0000,  0.0000,  0.0000)
  27 Li     6.870894    3.658360   13.180909    ( 0.0000,  0.0000,  0.0000)
  28 Li     1.718462    1.829180   14.234386    ( 0.0000,  0.0000,  0.0000)
  29 Li     5.152226    1.829180   14.234386    ( 0.0000,  0.0000,  0.0000)
  30 Li     1.718462    5.487540   14.234386    ( 0.0000,  0.0000,  0.0000)
  31 Li     5.152226    5.487540   14.234386    ( 0.0000,  0.0000,  0.0000)
  32 Li     3.435344    0.000000   15.285550    ( 0.0000,  0.0000,  0.0000)
  33 Li     6.870894    0.000000   15.285260    ( 0.0000,  0.0000,  0.0000)
  34 Li     3.435344    3.658360   15.285550    ( 0.0000,  0.0000,  0.0000)
  35 Li     6.870894    3.658360   15.285260    ( 0.0000,  0.0000,  0.0000)
  36 Li     1.720797   -0.036717   16.438600    ( 0.0000,  0.0000,  0.0000)
  37 Li     5.155008    0.046872   16.423477    ( 0.0000,  0.0000,  0.0000)
  38 Li     1.716795    3.750674   16.505495    ( 0.0000,  0.0000,  0.0000)
  39 Li     5.152029    3.688799   16.396882    ( 0.0000,  0.0000,  0.0000)
  40 Li     3.330318    1.820467   17.502377    ( 0.0000,  0.0000,  0.0000)
  41 Li     6.971317    1.819664   17.493405    ( 0.0000,  0.0000,  0.0000)
  42 Li     3.523653    5.484744   17.542605    ( 0.0000,  0.0000,  0.0000)
  43 Li     6.779708    5.483285   17.550400    ( 0.0000,  0.0000,  0.0000)
  44 Li     1.721813   -0.165299   18.539157    ( 0.0000,  0.0000,  0.0000)
  45 Li     5.159294    0.041305   18.527293    ( 0.0000,  0.0000,  0.0000)
  46 Li     1.719840    3.665975   18.637252    ( 0.0000,  0.0000,  0.0000)
  47 Li     5.152165    3.414411   18.415556    ( 0.0000,  0.0000,  0.0000)
  48 Li     3.449016    0.076900   19.702613    ( 0.0000,  0.0000,  0.0000)
  49 Li     6.868101    0.076632   19.706552    ( 0.0000,  0.0000,  0.0000)
  50 Li     3.517360    3.702782   19.895886    ( 0.0000,  0.0000,  0.0000)
  51 Li     6.792028    3.685968   19.896269    ( 0.0000,  0.0000,  0.0000)
  52 Li     1.725414    1.767235   20.690403    ( 0.0000,  0.0000,  0.0000)
  53 Li     5.152160    1.835499   21.225412    ( 0.0000,  0.0000,  0.0000)
  54 Li     1.716691    5.446399   20.863871    ( 0.0000,  0.0000,  0.0000)
  55 Li     5.157470    5.527723   20.946516    ( 0.0000,  0.0000,  0.0000)
  56 Li     6.910629   -0.060568   21.864025    ( 0.0000,  0.0000,  0.0000)
  57 Li     3.401527   -0.064690   21.863162    ( 0.0000,  0.0000,  0.0000)
  58 Li     7.174681    3.542259   22.050005    ( 0.0000,  0.0000,  0.0000)
  59 Li     3.145416    3.545107   22.054039    ( 0.0000,  0.0000,  0.0000)
[...]
  66 N      3.435275    3.658360   10.956225    ( 0.0000,  0.0000,  0.0000)
  67 N      6.870825    3.658360   10.956515    ( 0.0000,  0.0000,  0.0000)
  68 N      1.719424    0.000000   14.234965    ( 0.0000,  0.0000,  0.0000)
  69 N      5.151195    0.000000   14.234965    ( 0.0000,  0.0000,  0.0000)
  70 N      1.719424    3.658360   14.234965    ( 0.0000,  0.0000,  0.0000)
  71 N      5.151195    3.658360   14.234965    ( 0.0000,  0.0000,  0.0000)
  72 N      3.441545   -0.004331   17.472160    ( 0.0000,  0.0000,  0.0000)
  73 N      6.874323   -0.005750   17.471160    ( 0.0000,  0.0000,  0.0000)
  74 N      3.450132    3.653220   17.538098    ( 0.0000,  0.0000,  0.0000)
  75 N      6.855364    3.651762   17.539489    ( 0.0000,  0.0000,  0.0000)
  76 N      1.724337   -0.051711   20.694514    ( 0.0000,  0.0000,  0.0000)
  77 N      5.155923    0.047744   20.707260    ( 0.0000,  0.0000,  0.0000)
  78 N      1.721251    3.602289   20.718629    ( 0.0000,  0.0000,  0.0000)
  79 N      5.147447    3.718024   21.496672    ( 0.0000,  0.0000,  0.0000)
  80 Li     5.169474    4.405317   23.288350    ( 0.0000,  0.0000,  0.0000)

Unit cell:
           periodic     x           y           z      points  spacing
  1. axis:    yes    6.871100    0.000000    0.000000    35     0.1963
  2. axis:    yes    0.000000    7.316720    0.000000    36     0.2032
  3. axis:    yes    0.000000    0.000000   28.925800   144     0.2009

  Lengths:   6.871100   7.316720  28.925800
  Angles:   90.000000  90.000000  90.000000

Effective grid spacing dv^(1/3) = 0.2001

                     log10-error:    total        iterations:
           time      wfs    density  energy       fermi  poisson
iter:   1  23:00:56  -3.07         -285.328498    34
iter:   2  23:01:00  -4.33  -2.66  -285.323342    6
iter:   3  23:01:04  -4.27  -2.78  -285.317316    31
iter:   4  23:01:09  -5.60  -3.15  -285.317281    5
iter:   5  23:01:13  -5.35  -3.25  -285.317113    4
iter:   6  23:01:18  -5.82  -3.37  -285.316899    4
iter:   7  23:01:23  -6.16  -3.54  -285.316903    5
iter:   8  23:01:27  -6.50  -3.66  -285.316886    4
iter:   9  23:01:31  -6.49  -3.91  -285.316902    4
iter:  10  23:01:36  -6.55  -3.83  -285.316885    4