User:   jywang@lbnode01
Date:   Sun Jul 25 23:02:42 2021
Arch:   x86_64
Pid:    253909
Python: 3.7.4
gpaw:   /home/jywang/intel/intelpython3/lib/python3.7/site-packages/gpaw
_gpaw:  /home/jywang/intel/intelpython3/lib/python3.7/site-packages/
        _gpaw.cpython-37m-x86_64-linux-gnu.so
ase:    /home/jywang/intel/intelpython3/lib/python3.7/site-packages/ase (version 3.19.0)
numpy:  /home/jywang/intel/intelpython3/lib/python3.7/site-packages/numpy (version 1.17.4)
scipy:  /home/jywang/intel/intelpython3/lib/python3.7/site-packages/scipy (version 1.3.2)
units:  Angstrom and eV
cores: 32
OMP_NUM_THREADS: 1

Input parameters:
  convergence: {eigenstates: 1e-08}
  kpts: [3 3 1]
  mode: {ecut: 450.00000000000006,
         gammacentered: False,
         name: pw}
  occupations: {name: fermi-dirac,
                width: 0.01}
  random: True
  xc: PBE

System changes: positions, numbers, cell, pbc, initial_charges, initial_magmoms

Initialize ...

Li-setup:
  name: Lithium
  id: 830b4218f175192f93f959cfc0aad614
  Z: 3
  valence: 1
  core: 2
  charge: 0.0
  file: /home/jywang/gpaw_paws/gpaw-setups-0.9.20000/Li.PBE.gz
  compensation charges: gauss, rc=0.33, lmax=2
  cutoffs: 1.91(filt), 2.55(core),
  valence states:
                energy  radius
    2s(1.00)    -2.874   1.058
    2p(0.00)    -1.090   1.058
    *s          24.337   1.058

  Using partial waves for Li as LCAO basis

N-setup:
  name: Nitrogen
  id: f7500608b86eaa90eef8b1d9a670dc53
  Z: 7
  valence: 5
  core: 2
  charge: 0.0
  file: /home/jywang/gpaw_paws/gpaw-setups-0.9.20000/N.PBE.gz
  compensation charges: gauss, rc=0.18, lmax=2
  cutoffs: 1.11(filt), 0.96(core),
  valence states:
                energy  radius
    2s(2.00)   -18.583   0.603
    2p(3.00)    -7.089   0.529
    *s           8.629   0.603
    *p          20.123   0.529
    *d           0.000   0.577

  Using partial waves for N as LCAO basis

Reference energy: -42004.487119

Spin-paired calculation

Occupation numbers:
  Fermi-Dirac: width=0.0100 eV

Convergence criteria:
  Maximum total energy change: 0.0005 eV / electron
  Maximum integral of absolute density change: 0.0001 electrons
  Maximum integral of absolute eigenstate change: 1e-08 eV^2
  Maximum number of iterations: 333

Symmetries present (total): 1

  ( 1  0  0)
  ( 0  1  0)
  ( 0  0  1)

9 k-points: 3 x 3 x 1 Monkhorst-Pack grid
5 k-points in the irreducible part of the Brillouin zone
       k-points in crystal coordinates                weights
   0:     0.00000000    0.00000000    0.00000000          1/9
   1:     0.00000000    0.33333333    0.00000000          2/9
   2:     0.33333333   -0.33333333    0.00000000          2/9
   3:     0.33333333    0.00000000    0.00000000          2/9
   4:     0.33333333    0.33333333    0.00000000          2/9

Wave functions: Plane wave expansion
  Cutoff energy: 450.000 eV
  Number of coefficients (min, max): 31479, 31570
  Pulay-stress correction: 0.000000 eV/Ang^3 (de/decut=0.000000)
  Using FFTW library
  ScaLapack parameters: grid=1x1, blocksize=None
  Wavefunction extrapolation:
    Improved wavefunction reuse through dual PAW basis

Eigensolver
   Davidson(niter=2, smin=None, normalize=True)

Densities:
  Coarse grid: 35*36*144 grid
  Fine grid: 70*72*288 grid
  Total Charge: 0.000000

Density mixing:
  Method: separate
  Backend: pulay
  Linear mixing parameter: 0.05
  Mixing with 5 old densities
  Damping of long wave oscillations: 50

Hamiltonian:
  XC and Coulomb potentials evaluated on a 70*72*288 grid
  Using the PBE Exchange-Correlation functional

XC parameters: PBE with 2 nearest neighbor stencil

Total number of cores used: 32
Domain decomposition: 2 x 2 x 8

Number of atoms: 81
Number of atomic orbitals: 324
Number of bands in calculation: 101
Number of valence electrons: 161
Bands to converge: occupied

... initialized

Initializing position-dependent things.

Density initialized from atomic densities
Creating initial wave functions:
  101 bands from LCAO basis set

 |   Li      Li Li    |
 |   |   N            |
 |  Li  Li Li   NLi   |
 |   | N              |
 |   |Li Li Li Li   Li|
 |   N        N       |
 |   | Li Li Li LiLi Li
 |   |   Li N       N |
 |Li | Li Li  Li      |
 |   |          Li    |
 |   |  Li Li    Li Li|
 |   | N      LiN     |
 |   |Li Li    Li Li  |
 |   N     Li N     Li|
 |   | Li   Li  Li   Li
 |   |   LiN      LiN |
 |   Li   Li  Li   Li |
 |   | LiN      LiN   |
 |   |     Li       Li|
 |   LiNLi    LiNLi   |
 |   |   Li       Li  |
 |   NLi   Li NLi   Li|
 |   |   Li       Li  |

Positions:
   0 Li     3.435275    0.000000    6.598843    ( 0.0000,  0.0000,  0.0000)
   1 Li     6.870825    0.000000    6.599421    ( 0.0000,  0.0000,  0.0000)
   2 Li     3.435275    3.658360    6.598843    ( 0.0000,  0.0000,  0.0000)
   3 Li     6.870825    3.658360    6.599421    ( 0.0000,  0.0000,  0.0000)
   4 Li     1.718187    1.829180    7.583766    ( 0.0000,  0.0000,  0.0000)
   5 Li     5.152363    1.829180    7.583766    ( 0.0000,  0.0000,  0.0000)
   6 Li     1.718187    5.487540    7.583766    ( 0.0000,  0.0000,  0.0000)
   7 Li     5.152363    5.487540    7.583766    ( 0.0000,  0.0000,  0.0000)
   8 Li     3.435275    0.000000    8.718815    ( 0.0000,  0.0000,  0.0000)
   9 Li     6.870825    0.000000    8.718236    ( 0.0000,  0.0000,  0.0000)
  10 Li     3.435275    3.658360    8.718815    ( 0.0000,  0.0000,  0.0000)
  11 Li     6.870825    3.658360    8.718236    ( 0.0000,  0.0000,  0.0000)
  12 Li     1.717500    0.000000    9.900144    ( 0.0000,  0.0000,  0.0000)
  13 Li     5.153050    0.000000    9.900144    ( 0.0000,  0.0000,  0.0000)
  14 Li     1.717500    3.658360    9.900144    ( 0.0000,  0.0000,  0.0000)
  15 Li     5.153050    3.658360    9.900144    ( 0.0000,  0.0000,  0.0000)
  16 Li     3.435275    1.829180   10.960564    ( 0.0000,  0.0000,  0.0000)
  17 Li     6.870825    1.829180   10.960853    ( 0.0000,  0.0000,  0.0000)
  18 Li     3.435275    5.487540   10.960564    ( 0.0000,  0.0000,  0.0000)
  19 Li     6.870825    5.487540   10.960853    ( 0.0000,  0.0000,  0.0000)
  20 Li     1.717569    0.000000   12.007100    ( 0.0000,  0.0000,  0.0000)
  21 Li     5.153050    0.000000   12.007100    ( 0.0000,  0.0000,  0.0000)
  22 Li     1.717569    3.658360   12.007100    ( 0.0000,  0.0000,  0.0000)
  23 Li     5.153050    3.658360   12.007100    ( 0.0000,  0.0000,  0.0000)
  24 Li     3.435344    0.000000   13.180330    ( 0.0000,  0.0000,  0.0000)
  25 Li     6.870894    0.000000   13.180909    ( 0.0000,  0.0000,  0.0000)
  26 Li     3.435344    3.658360   13.180330    ( 0.0000,  0.0000,  0.0000)
  27 Li     6.870894    3.658360   13.180909    ( 0.0000,  0.0000,  0.0000)
  28 Li     1.718462    1.829180   14.234386    ( 0.0000,  0.0000,  0.0000)
  29 Li     5.152226    1.829180   14.234386    ( 0.0000,  0.0000,  0.0000)
  30 Li     1.718462    5.487540   14.234386    ( 0.0000,  0.0000,  0.0000)
  31 Li     5.152226    5.487540   14.234386    ( 0.0000,  0.0000,  0.0000)
  32 Li     3.435344    0.000000   15.285550    ( 0.0000,  0.0000,  0.0000)
  33 Li     6.870894    0.000000   15.285260    ( 0.0000,  0.0000,  0.0000)
  34 Li     3.435344    3.658360   15.285550    ( 0.0000,  0.0000,  0.0000)
  35 Li     6.870894    3.658360   15.285260    ( 0.0000,  0.0000,  0.0000)
  36 Li     1.721314   -0.028079   16.439156    ( 0.0000,  0.0000,  0.0000)
  37 Li     5.155262    0.040584   16.422655    ( 0.0000,  0.0000,  0.0000)
  38 Li     1.716152    3.742518   16.499426    ( 0.0000,  0.0000,  0.0000)
  39 Li     5.151930    3.688581   16.391095    ( 0.0000,  0.0000,  0.0000)
  40 Li     3.340844    1.821524   17.501155    ( 0.0000,  0.0000,  0.0000)
  41 Li     6.963778    1.821052   17.491559    ( 0.0000,  0.0000,  0.0000)
  42 Li     3.515414    5.485120   17.535304    ( 0.0000,  0.0000,  0.0000)
  43 Li     6.790148    5.484459   17.542753    ( 0.0000,  0.0000,  0.0000)
  44 Li     1.722068   -0.157262   18.539009    ( 0.0000,  0.0000,  0.0000)
  45 Li     5.158907    0.041273   18.526610    ( 0.0000,  0.0000,  0.0000)
  46 Li     1.720201    3.665886   18.633747    ( 0.0000,  0.0000,  0.0000)
  47 Li     5.152298    3.435983   18.413085    ( 0.0000,  0.0000,  0.0000)
  48 Li     3.450147    0.072352   19.700343    ( 0.0000,  0.0000,  0.0000)
  49 Li     6.866184    0.074420   19.704910    ( 0.0000,  0.0000,  0.0000)
  50 Li     3.515560    3.700651   19.890678    ( 0.0000,  0.0000,  0.0000)
  51 Li     6.794205    3.684147   19.892557    ( 0.0000,  0.0000,  0.0000)
  52 Li     1.725383    1.772113   20.679945    ( 0.0000,  0.0000,  0.0000)
  53 Li     5.151589    1.833765   21.219414    ( 0.0000,  0.0000,  0.0000)
  54 Li     1.717183    5.442743   20.851484    ( 0.0000,  0.0000,  0.0000)
  55 Li     5.158324    5.526406   20.945597    ( 0.0000,  0.0000,  0.0000)
  56 Li     6.916475   -0.059532   21.860508    ( 0.0000,  0.0000,  0.0000)
  57 Li     3.396404   -0.063223   21.860089    ( 0.0000,  0.0000,  0.0000)
  58 Li     7.175460    3.540550   22.045166    ( 0.0000,  0.0000,  0.0000)
  59 Li     3.144028    3.541232   22.047101    ( 0.0000,  0.0000,  0.0000)
[...]
  66 N      3.435275    3.658360   10.956225    ( 0.0000,  0.0000,  0.0000)
  67 N      6.870825    3.658360   10.956515    ( 0.0000,  0.0000,  0.0000)
  68 N      1.719424    0.000000   14.234965    ( 0.0000,  0.0000,  0.0000)
  69 N      5.151195    0.000000   14.234965    ( 0.0000,  0.0000,  0.0000)
  70 N      1.719424    3.658360   14.234965    ( 0.0000,  0.0000,  0.0000)
  71 N      5.151195    3.658360   14.234965    ( 0.0000,  0.0000,  0.0000)
  72 N      3.440605   -0.003584   17.471438    ( 0.0000,  0.0000,  0.0000)
  73 N      6.875325   -0.004261   17.470523    ( 0.0000,  0.0000,  0.0000)
  74 N      3.448109    3.654100   17.533323    ( 0.0000,  0.0000,  0.0000)
  75 N      6.857573    3.652929   17.534269    ( 0.0000,  0.0000,  0.0000)
  76 N      1.723697   -0.051219   20.689823    ( 0.0000,  0.0000,  0.0000)
  77 N      5.155455    0.044617   20.702513    ( 0.0000,  0.0000,  0.0000)
  78 N      1.720942    3.602408   20.711903    ( 0.0000,  0.0000,  0.0000)
  79 N      5.148868    3.714907   21.484797    ( 0.0000,  0.0000,  0.0000)
  80 Li     5.169882    4.395153   23.280822    ( 0.0000,  0.0000,  0.0000)

Unit cell:
           periodic     x           y           z      points  spacing
  1. axis:    yes    6.871100    0.000000    0.000000    35     0.1963
  2. axis:    yes    0.000000    7.316720    0.000000    36     0.2032
  3. axis:    yes    0.000000    0.000000   28.925800   144     0.2009

  Lengths:   6.871100   7.316720  28.925800
  Angles:   90.000000  90.000000  90.000000

Effective grid spacing dv^(1/3) = 0.2001

                     log10-error:    total        iterations:
           time      wfs    density  energy       fermi  poisson
iter:   1  23:03:12                -334.644116    3
iter:   2  23:03:19  -0.97  -0.50  -320.334303    33
iter:   3  23:03:25  -0.37  -0.56  -291.054378    5
iter:   4  23:03:32  -1.02  -0.83  -287.597696    34
iter:   5  23:03:38  -1.49  -0.97  -288.586327    30
iter:   6  23:03:45  -1.64  -1.20  -285.679528    34
iter:   7  23:03:52  -1.84  -1.44  -285.797919    35
[...]
 |   N     Li N     Li|
 |   | Li   Li  Li   Li
 |   |   LiN      LiN |
 |   Li   Li  Li   Li |
 |   | LiN      LiN   |
 |   |     Li       Li|
 |   LiNLi    LiNLi   |
 |   |   Li       Li  |
 |   NLi   Li NLi   Li|
 |   |   Li       Li  |

[...]

Density initialized from wave functions
 |   Li      Li Li    |
 |  Li  Li Li   NLi   |
 |   | N       Li     |
 |   |Li Li Li      Li|
 |   N       NN       |
 Li  | Li Li Li     Li|
 |   |   Li N  Li   N |
 | Li| Li Li  LiLi    |
 |   |  Li Li Li Li Li|
 |   | N        N     |
 |   |Li Li    Li Li  |
 |   N     Li N     Li|
 |   | Li   Li  Li   Li
 |   |   LiN      LiN |
 |   Li   Li  Li   Li |
 |   | LiN      LiN   |
 |   |     Li       Li|
 |   LiNLi    LiNLi   |
 |   |   Li       Li  |
 |   NLi   Li NLi   Li|
 |   |   Li       Li  |

[...]

Density initialized from wave functions
 |   |          Li    |
 |  Li  Li Li   NLi   |
 |   | N       Li     |
 Li  |Li Li Li      Li|
 |   N       NN       |
 Li  | Li Li Li     Li|
 |   |   Li N  Li   N |
 | Li| Li Li  LiLi    |
 |   |  Li Li Li Li Li|
 |   | N        N     |
 |   |Li Li    Li Li  |
 |   N     Li N     Li|
 |   | Li   Li  Li   Li
 |   |   LiN      LiN |
 |   Li   Li  Li   Li |
 |   | LiN      LiN   |
 |   |     Li       Li|
 |   LiNLi    LiNLi   |
 |   |   Li       Li  |
 |   NLi   Li NLi   Li|
 |   |   Li       Li  |

[...]

Density initialized from wave functions
 |   |          Li    |
 |  Li  Li Li   NLi   |
 |   | N       Li     |
 Li  |Li Li Li      Li|
 |   N       NN       |
 Li  | Li Li Li     Li|
 |   |   Li N  Li   N |
 | Li| Li Li  LiLi    |
 |   |  Li Li Li Li Li|
 |   | N        N     |
 |   |Li Li    Li Li  |
 |   N     Li N     Li|
 |   | Li   Li  Li   Li
 |   |   LiN      LiN |
 |   Li   Li  Li   Li |
 |   | LiN      LiN   |
 |   |     Li       Li|
 |   LiNLi    LiNLi   |
 |   |   Li       Li  |
 |   NLi   Li NLi   Li|
 |   |   Li       Li  |

[...]

Density initialized from wave functions
 |   |          Li    |
 |  Li  Li Li   NLi   |
 |   | N       Li     |
 Li  |Li Li Li    LiLi|
 |   N       NN       |
 Li  | Li Li Li      Li
 |   |   Li N  Li   N |
 | Li| Li Li    Li    |
 |   |  Li Li Li Li Li|
 |   | N        N     |
 |   |Li Li    Li Li  |
 |   N     Li N     Li|
 |   | Li   Li  Li   Li
 |   |   LiN      LiN |
 |   Li   Li  Li   Li |
 |   | LiN      LiN   |
 |   |     Li       Li|
 |   LiNLi    LiNLi   |
 |   |   Li       Li  |
 |   NLi   Li NLi   Li|
 |   |   Li       Li  |

[...]

Density initialized from wave functions
 |   |          Li    |
 |  Li  Li Li   NLi   |
 |   | N       Li     |
 Li  |Li Li Li    LiLi|
 |   N       NN       |
 Li  | Li Li Li      Li
 |   |   Li N  Li   N |
 | Li| Li Li    Li    |
 |   |  Li Li Li Li Li|
 |   | N        N     |
 |   |Li Li    Li Li  |
 |   N     Li N     Li|
 |   | Li   Li  Li   Li
 |   |   LiN      LiN |
 |   Li   Li  Li   Li |
 |   | LiN      LiN   |
 |   |     Li       Li|
 |   LiNLi    LiNLi   |
 |   |   Li       Li  |
 |   NLi   Li NLi   Li|
 |   |   Li       Li  |

[...]

Density initialized from wave functions
 |   |          Li    |
 |  Li  Li Li   NLi   |
 |   | N       Li     |
 Li  |Li Li Li    LiLi|
 |   N       NN       |
 Li  | Li Li Li      Li
 |   |   Li N  Li   N |
 |   | Li       Li    |
 | Li|    Li          |
 |   |  Li Li Li Li Li|
 |   | N        N     |
 |   |Li Li    Li Li  |
 |   N     Li N     Li|
 |   | Li   Li  Li   Li
 |   |   LiN      LiN |
 |   Li   Li  Li   Li |
 |   | LiN      LiN   |
 |   |     Li       Li|
 |   LiNLi    LiNLi   |
 |   |   Li       Li  |
 |   NLi   Li NLi   Li|
 |   |   Li       Li  |

[...]

Density initialized from wave functions
 |   |          Li    |
 |  Li  Li Li   NLi   |
 |   | N       Li     |
 Li  |Li Li Li    LiLi|
 |   N       NN       N
 Li  | Li Li Li      Li
 |   |   Li N  Li   N |
 |   | Li       Li    |
 | Li|    Li          |
 |   |  Li Li Li Li Li|
 |   | N        N     |
 |   |Li Li    Li Li  |
 |   N     Li N     Li|
 |   | Li   Li  Li   Li
 |   |   LiN      LiN |
 |   Li   Li  Li   Li |
 |   | LiN      LiN   |
 |   |     Li       Li|
 |   LiNLi    LiNLi   |
 |   |   Li       Li  |
 |   NLi   Li NLi   Li|
 |   |   Li       Li  |

[...]

Density initialized from wave functions
 |   |          Li    |
 |  Li  Li Li   NLi   |
 |   | N       Li     |
 Li  |Li Li Li    LiLi|
 |   N       NN       N
 Li  | Li Li Li      Li
 |   |   Li N  Li   N |
 |   | Li       Li    |
 | Li|    Li          |
 |   |  Li Li Li Li Li|
 |   | N        N     |
 |   |Li Li    Li Li  |
 |   N     Li N     Li|
 |   | Li   Li  Li   Li
 |   |   LiN      LiN |
 |   Li   Li  Li   Li |
 |   | LiN      LiN   |
 |   |     Li       Li|
 |   LiNLi    LiNLi   |
 |   |   Li       Li  |
 |   NLi   Li NLi   Li|
 |   |   Li       Li  |

[...]

Density initialized from wave functions
 |   |          Li    |
 |  Li  Li Li   NLi   |
 |   | N       Li     |
 Li  |Li Li Li    LiLi|
 |   N       NN       |
 Li  | Li Li Li      Li
 |   |   Li N  Li   N |
 |   | Li       Li    |
 | Li|    Li          |
 |   |  Li Li Li Li Li|
 |   | N        N     |
 |   |Li Li    Li Li  |
 |   N     Li N     Li|
 |   | Li   Li  Li   Li
 |   |   LiN      LiN |
 |   Li   Li  Li   Li |
 |   | LiN      LiN   |
 |   |     Li       Li|
 |   LiNLi    LiNLi   |
 |   |   Li       Li  |
 |   NLi   Li NLi   Li|
 |   |   Li       Li  |

[...]

Density initialized from wave functions
 |   |          Li    |
 |  Li  Li Li   NLi   |
 |   | N       Li     |
 Li  |Li Li Li    LiLi|
 |   N       NN       |
 Li  | Li Li Li      Li
 |   |   LiN   Li   N |
 |   | Li       Li    |
 | Li|    Li          |
 |   |  Li Li Li Li Li|
 |   | N        N     |
 |   |Li Li    Li Li  |
 |   N     Li N     Li|
 |   | Li   Li  Li   Li
 |   |   LiN      LiN |
 |   Li   Li  Li   Li |
 |   | LiN      LiN   |
 |   |     Li       Li|
 |   LiNLi    LiNLi   |
 |   |   Li       Li  |
 |   NLi   Li NLi   Li|
 |   |   Li       Li  |

[...]

Converged after 13 iterations.

Dipole moment: (-0.605969, -6.280261, -0.918721) |e|*Ang

Energy contributions relative to reference atoms: (reference = -42004.487119)

Kinetic:       +293.010528
Potential:     -203.167772
External:        +0.000000
XC:            -373.559549
Entropy (-ST):   -0.002579
Local:           -1.828424
Free energy:   -285.547796
Extrapolated:  -285.546506

Fermi level: 0.45450

Showing only first 2 kpts
 Kpt  Band  Eigenvalues  Occupancy
  0    78     -0.36916    0.22222
  0    79     -0.26313    0.22222
  0    80      0.11189    0.22222
  0    81      0.65149    0.00000

  1    78     -0.40989    0.44444
  1    79     -0.32840    0.44444
  1    80      0.44334    0.33474
  1    81      1.09278    0.00000

No gap

Forces in eV/Ang:
  0 Li   -0.00013   -0.00023   -0.04630
  1 Li   -0.00007   -0.00023   -0.04579
  2 Li   -0.00013    0.00017   -0.04633
  3 Li   -0.00007    0.00018   -0.04582
  4 Li    0.00077   -0.00024    0.03401
  5 Li   -0.00078   -0.00026    0.03402
  6 Li    0.00077    0.00026    0.03333
  7 Li   -0.00078    0.00024    0.03332
  8 Li   -0.00057    0.00031   -0.03300
  9 Li    0.00036    0.00031   -0.03321
 10 Li   -0.00059   -0.00099   -0.03400
 11 Li    0.00037   -0.00099   -0.03421
 12 Li    0.00025    0.00046   -0.00669
 13 Li   -0.00029    0.00084   -0.00551
 14 Li    0.00025   -0.00077   -0.00796
 15 Li   -0.00029   -0.00107   -0.00667
 16 Li    0.00353   -0.00202   -0.04783
 17 Li   -0.00348   -0.00202   -0.04806
 18 Li    0.00136    0.00147   -0.04057
 19 Li   -0.00132    0.00147   -0.04083
 20 Li    0.00065   -0.00390   -0.04132
 21 Li   -0.00058    0.00194   -0.01593
 22 Li    0.00064    0.00942   -0.04841
 23 Li   -0.00053    0.00869   -0.02257
 24 Li    0.02277   -0.00102   -0.00883
 25 Li   -0.02318   -0.00100   -0.00750
 26 Li    0.02250    0.00719   -0.01229
 27 Li   -0.02289    0.00715   -0.01108
 28 Li   -0.00044   -0.00981    0.03930
 29 Li   -0.00026    0.03063    0.03555
 30 Li    0.00015   -0.02654   -0.17450
 31 Li   -0.00059    0.04652   -0.03235
 32 Li    0.03098   -0.09700   -0.03664
 33 Li   -0.02373   -0.09643   -0.03930
 34 Li   -0.00341   -0.16279    0.01534
 35 Li    0.01275   -0.16610    0.01357
 36 Li    0.00041   -0.00361   -0.02936
 37 Li   -0.00409   -0.02568   -0.00548
 38 Li    0.00738   -0.00762   -0.03144
 39 Li    0.00679   -0.03374    0.00143
 40 Li    0.01064   -0.03394    0.01331
 41 Li   -0.00082    0.00070    0.00825
 42 Li    0.01844    0.00760    0.02614
 43 Li   -0.01430    0.03485    0.02542
 44 Li   -0.00257    0.02822   -0.02871
 45 Li   -0.00938    0.06999    0.00057
 46 Li   -0.00460   -0.04431    0.01047
 47 Li   -0.00134    0.02641    0.02941
 48 Li    0.01883    0.00649    0.03972
 49 Li   -0.02155    0.01734    0.03725
 50 Li    0.01498    0.00944   -0.01300
 51 Li   -0.00470    0.00560   -0.02484
 52 Li   -0.00243   -0.02930   -0.01464
 53 Li    0.00205    0.09502    0.02053
 54 Li   -0.00016    0.00058   -0.00201
 55 Li   -0.00319    0.03407   -0.02026
 56 Li    0.03075    0.06125   -0.00305
 57 Li   -0.02703    0.05698   -0.00625
 58 Li    0.00385    0.04015   -0.00418
 59 Li   -0.02751    0.03653   -0.02734
[...]
 66 N    -0.00713   -0.00910    0.04716
 67 N     0.00739   -0.00905    0.04666
 68 N     0.00353   -0.09942    0.08048
 69 N    -0.00132    0.08905   -0.01552
 70 N     0.00409    0.11929    0.15945
 71 N    -0.00040    0.14724    0.06330
 72 N     0.00103   -0.01644   -0.01392
 73 N    -0.00588   -0.04654   -0.00758
 74 N     0.00745    0.07773    0.01519
 75 N    -0.00312    0.05208    0.01055
 76 N     0.00967   -0.05879    0.03717
 77 N    -0.00930   -0.08969   -0.00304
 78 N     0.01142    0.07860    0.08158
 79 N     0.00666   -0.01045    0.06799
 80 Li    0.00319   -0.01607   -0.01964

System changes: positions

Initializing position-dependent things.

Density initialized from wave functions
 |   |          Li    |
 |  Li  Li Li   NLi   |
 |   | N       Li     |
 Li  |Li Li Li    LiLi|
 |   N       NN       |
 Li  | Li Li Li      Li
 |   |   LiN   Li   N |
 |   | Li       Li    |
 | Li|    Li          |
 |   |  Li Li Li Li Li|
 |   | N        N     |
 |   |Li Li    Li Li  |
 |   N     Li N     Li|
 |   | Li   Li  Li   Li
 |   |   LiN      LiN |
 |   Li   Li  Li   Li |
 |   | LiN      LiN   |
 |   |     Li       Li|
 |   LiNLi    LiNLi   |
 |   |   Li       Li  |
 |   NLi   Li NLi   Li|
 |   |   Li       Li  |

Positions:
   0 Li     3.435275    0.000000    6.598843    ( 0.0000,  0.0000,  0.0000)
   1 Li     6.870825    0.000000    6.599421    ( 0.0000,  0.0000,  0.0000)
   2 Li     3.435275    3.658360    6.598843    ( 0.0000,  0.0000,  0.0000)
   3 Li     6.870825    3.658360    6.599421    ( 0.0000,  0.0000,  0.0000)
   4 Li     1.718187    1.829180    7.583766    ( 0.0000,  0.0000,  0.0000)
   5 Li     5.152363    1.829180    7.583766    ( 0.0000,  0.0000,  0.0000)
   6 Li     1.718187    5.487540    7.583766    ( 0.0000,  0.0000,  0.0000)
   7 Li     5.152363    5.487540    7.583766    ( 0.0000,  0.0000,  0.0000)
   8 Li     3.435275    0.000000    8.718815    ( 0.0000,  0.0000,  0.0000)
   9 Li     6.870825    0.000000    8.718236    ( 0.0000,  0.0000,  0.0000)
  10 Li     3.435275    3.658360    8.718815    ( 0.0000,  0.0000,  0.0000)
  11 Li     6.870825    3.658360    8.718236    ( 0.0000,  0.0000,  0.0000)
  12 Li     1.717500    0.000000    9.900144    ( 0.0000,  0.0000,  0.0000)
  13 Li     5.153050    0.000000    9.900144    ( 0.0000,  0.0000,  0.0000)
  14 Li     1.717500    3.658360    9.900144    ( 0.0000,  0.0000,  0.0000)
  15 Li     5.153050    3.658360    9.900144    ( 0.0000,  0.0000,  0.0000)
  16 Li     3.435275    1.829180   10.960564    ( 0.0000,  0.0000,  0.0000)
  17 Li     6.870825    1.829180   10.960853    ( 0.0000,  0.0000,  0.0000)
  18 Li     3.435275    5.487540   10.960564    ( 0.0000,  0.0000,  0.0000)
  19 Li     6.870825    5.487540   10.960853    ( 0.0000,  0.0000,  0.0000)
  20 Li     1.717569    0.000000   12.007100    ( 0.0000,  0.0000,  0.0000)
  21 Li     5.153050    0.000000   12.007100    ( 0.0000,  0.0000,  0.0000)
  22 Li     1.717569    3.658360   12.007100    ( 0.0000,  0.0000,  0.0000)
  23 Li     5.153050    3.658360   12.007100    ( 0.0000,  0.0000,  0.0000)
  24 Li     3.435344    0.000000   13.180330    ( 0.0000,  0.0000,  0.0000)
  25 Li     6.870894    0.000000   13.180909    ( 0.0000,  0.0000,  0.0000)
  26 Li     3.435344    3.658360   13.180330    ( 0.0000,  0.0000,  0.0000)
  27 Li     6.870894    3.658360   13.180909    ( 0.0000,  0.0000,  0.0000)
  28 Li     1.718462    1.829180   14.234386    ( 0.0000,  0.0000,  0.0000)
  29 Li     5.152226    1.829180   14.234386    ( 0.0000,  0.0000,  0.0000)
  30 Li     1.718462    5.487540   14.234386    ( 0.0000,  0.0000,  0.0000)
  31 Li     5.152226    5.487540   14.234386    ( 0.0000,  0.0000,  0.0000)
  32 Li     3.435344    0.000000   15.285550    ( 0.0000,  0.0000,  0.0000)
  33 Li     6.870894    0.000000   15.285260    ( 0.0000,  0.0000,  0.0000)
  34 Li     3.435344    3.658360   15.285550    ( 0.0000,  0.0000,  0.0000)
  35 Li     6.870894    3.658360   15.285260    ( 0.0000,  0.0000,  0.0000)
  36 Li     1.718550   -0.293329   16.457515    ( 0.0000,  0.0000,  0.0000)
  37 Li     5.154402    0.050711   16.474683    ( 0.0000,  0.0000,  0.0000)
  38 Li     1.718766    3.834828   16.549938    ( 0.0000,  0.0000,  0.0000)
  39 Li     5.154265    3.813399   16.502496    ( 0.0000,  0.0000,  0.0000)
  40 Li     3.136805    1.746630   17.237724    ( 0.0000,  0.0000,  0.0000)
  41 Li     7.173658    1.744883   17.241525    ( 0.0000,  0.0000,  0.0000)
  42 Li     3.532435    5.404311   17.624776    ( 0.0000,  0.0000,  0.0000)
  43 Li     6.776124    5.403483   17.625640    ( 0.0000,  0.0000,  0.0000)
  44 Li     1.719792   -0.246522   18.611560    ( 0.0000,  0.0000,  0.0000)
  45 Li     5.156561   -0.174914   18.596654    ( 0.0000,  0.0000,  0.0000)
  46 Li     1.722134    3.485766   18.679974    ( 0.0000,  0.0000,  0.0000)
  47 Li     5.158209    2.665278   18.267243    ( 0.0000,  0.0000,  0.0000)
  48 Li     3.427054    0.580775   19.618469    ( 0.0000,  0.0000,  0.0000)
  49 Li     6.884541    0.576995   19.621453    ( 0.0000,  0.0000,  0.0000)
  50 Li     3.630084    3.847030   19.786559    ( 0.0000,  0.0000,  0.0000)
  51 Li     6.683093    3.848047   19.785456    ( 0.0000,  0.0000,  0.0000)
  52 Li     1.722697    2.000237   20.951311    ( 0.0000,  0.0000,  0.0000)
  53 Li     5.155223    2.103712   21.387978    ( 0.0000,  0.0000,  0.0000)
  54 Li     1.725235    5.669894   20.712328    ( 0.0000,  0.0000,  0.0000)
  55 Li     5.156103    5.806326   20.878823    ( 0.0000,  0.0000,  0.0000)
  56 Li     6.913529    0.072700   21.764498    ( 0.0000,  0.0000,  0.0000)
  57 Li     3.399083    0.074805   21.764050    ( 0.0000,  0.0000,  0.0000)
  58 Li     7.146694    3.903152   21.974769    ( 0.0000,  0.0000,  0.0000)
  59 Li     3.171353    3.901410   21.979422    ( 0.0000,  0.0000,  0.0000)
[...]
  66 N      3.435275    3.658360   10.956225    ( 0.0000,  0.0000,  0.0000)
  67 N      6.870825    3.658360   10.956515    ( 0.0000,  0.0000,  0.0000)
  68 N      1.719424    0.000000   14.234965    ( 0.0000,  0.0000,  0.0000)
  69 N      5.151195    0.000000   14.234965    ( 0.0000,  0.0000,  0.0000)
  70 N      1.719424    3.658360   14.234965    ( 0.0000,  0.0000,  0.0000)
  71 N      5.151195    3.658360   14.234965    ( 0.0000,  0.0000,  0.0000)
  72 N      3.434054   -0.062014   17.481770    ( 0.0000,  0.0000,  0.0000)
  73 N      6.874967   -0.062649   17.481176    ( 0.0000,  0.0000,  0.0000)
  74 N      3.460170    3.542994   17.542710    ( 0.0000,  0.0000,  0.0000)
  75 N      6.854886    3.542992   17.543618    ( 0.0000,  0.0000,  0.0000)
  76 N      1.722450    0.190324   20.660556    ( 0.0000,  0.0000,  0.0000)
  77 N      5.153306    0.375495   20.644036    ( 0.0000,  0.0000,  0.0000)
  78 N      1.726212    3.815276   20.675095    ( 0.0000,  0.0000,  0.0000)
  79 N      5.154814    4.020099   21.492796    ( 0.0000,  0.0000,  0.0000)
  80 Li     5.158381    4.680895   23.291899    ( 0.0000,  0.0000,  0.0000)

Unit cell:
           periodic     x           y           z      points  spacing
  1. axis:    yes    6.871100    0.000000    0.000000    35     0.1963
  2. axis:    yes    0.000000    7.316720    0.000000    36     0.2032
  3. axis:    yes    0.000000    0.000000   28.925800   144     0.2009

  Lengths:   6.871100   7.316720  28.925800
  Angles:   90.000000  90.000000  90.000000

Effective grid spacing dv^(1/3) = 0.2001

                     log10-error:    total        iterations:
           time      wfs    density  energy       fermi  poisson
iter:   1  00:07:36  -3.62         -285.549272    3
iter:   2  00:07:43  -4.82  -3.07  -285.549146    3
iter:   3  00:07:49  -4.99  -3.12  -285.548624    4
iter:   4  00:07:55  -6.22  -3.36  -285.548582    3