User:   jywang@lbnode02
Date:   Wed Jul  7 21:17:56 2021
Arch:   x86_64
Pid:    251052
Python: 3.7.7
gpaw:   /home/jywang/intel/intelpython3/lib/python3.7/site-packages/gpaw
_gpaw:  /home/jywang/intel/intelpython3/lib/python3.7/site-packages/
        _gpaw.cpython-37m-x86_64-linux-gnu.so
ase:    /home/jywang/intel/intelpython3/lib/python3.7/site-packages/ase (version 3.20.1)
numpy:  /home/jywang/intel/intelpython3/lib/python3.7/site-packages/numpy (version 1.17.5)
scipy:  /home/jywang/intel/intelpython3/lib/python3.7/site-packages/scipy (version 1.3.3)
units:  Angstrom and eV
cores: 32
OMP_NUM_THREADS: 1

Input parameters:
  convergence: {eigenstates: 1e-08}
  kpts: [3 2 1]
  mode: {ecut: 450.00000000000006,
         gammacentered: False,
         name: pw}
  occupations: {name: fermi-dirac,
                width: 0.01}
  random: True
  xc: PBE

System changes: positions, numbers, cell, pbc, initial_charges, initial_magmoms

Initialize ...

Li-setup:
  name: Lithium
  id: 830b4218f175192f93f959cfc0aad614
  Z: 3
  valence: 1
  core: 2
  charge: 0.0
  file: /home/jywang/gpaw_paws/gpaw-setups-0.9.20000/Li.PBE.gz
  compensation charges: gauss, rc=0.33, lmax=2
  cutoffs: 1.91(filt), 2.55(core),
  valence states:
                energy  radius
    2s(1.00)    -2.874   1.058
    2p(0.00)    -1.090   1.058
    *s          24.337   1.058

  Using partial waves for Li as LCAO basis

N-setup:
  name: Nitrogen
  id: f7500608b86eaa90eef8b1d9a670dc53
  Z: 7
  valence: 5
  core: 2
  charge: 0.0
  file: /home/jywang/gpaw_paws/gpaw-setups-0.9.20000/N.PBE.gz
  compensation charges: gauss, rc=0.18, lmax=2
  cutoffs: 1.11(filt), 0.96(core),
  valence states:
                energy  radius
    2s(2.00)   -18.583   0.603
    2p(3.00)    -7.089   0.529
    *s           8.629   0.603
    *p          20.123   0.529
    *d           0.000   0.577

  Using partial waves for N as LCAO basis

Reference energy: -75445.846558

Spin-paired calculation

Occupation numbers:
  Fermi-Dirac: width=0.0100 eV

Convergence criteria:
  Maximum total energy change: 0.0005 eV / electron
  Maximum integral of absolute density change: 0.0001 electrons
  Maximum integral of absolute eigenstate change: 1e-08 eV^2
  Maximum number of iterations: 333

Symmetries present (total): 1

  ( 1  0  0)
  ( 0  1  0)
  ( 0  0  1)

6 k-points: 3 x 2 x 1 Monkhorst-Pack grid
3 k-points in the irreducible part of the Brillouin zone
       k-points in crystal coordinates                weights
   0:     0.00000000    0.25000000    0.00000000          2/6
   1:     0.33333333   -0.25000000    0.00000000          2/6
   2:     0.33333333    0.25000000    0.00000000          2/6

Wave functions: Plane wave expansion
  Cutoff energy: 450.000 eV
  Number of coefficients (min, max): 57469, 57511
  Pulay-stress correction: 0.000000 eV/Ang^3 (de/decut=0.000000)
  Using FFTW library
  ScaLapack parameters: grid=1x1, blocksize=None
  Wavefunction extrapolation:
    Improved wavefunction reuse through dual PAW basis

Eigensolver
   Davidson(niter=2, smin=None, normalize=True)

Densities:
  Coarse grid: 36*60*150 grid
  Fine grid: 72*120*300 grid
  Total Charge: 0.000000

Density mixing:
  Method: separate
  Backend: pulay
  Linear mixing parameter: 0.05
  Mixing with 5 old densities
  Damping of long wave oscillations: 50

Hamiltonian:
  XC and Coulomb potentials evaluated on a 72*120*300 grid
  Using the PBE Exchange-Correlation functional

XC parameters: PBE with 2 nearest neighbor stencil

Total number of cores used: 32
Domain decomposition: 2 x 2 x 8

Number of atoms: 145
Number of atomic orbitals: 580
Number of bands in calculation: 178
Number of valence electrons: 289
Bands to converge: occupied

... initialized

Initializing position-dependent things.

Density initialized from atomic densities
Creating initial wave functions:
  178 bands from LCAO basis set

 |     Li Li    Li Li     |
 |    NN|   Li NN    Li   |
 |   Lii|     Lii         |
 | Li   |   Li            |
 |N  LiLi  N  LiLi        |
 Li N N LiLi N N LiLi     |
 | LiLiN|   LiLiN    Li   |
 |Li  Li|  Li  Li         |
 | LiLi |   LiLi          |
 |N N  Lii N N  Lii       |
 Li   NN| LiLi NN  LiLi   |
 | LiLi |   LiLi          |
 |Lii Li|  Lii Li         |
 |N  LiLi  N  LiLi        |
 |  N N LiLi N N LiLi     |
 LiLi  N| LiLi  N    Li   |
 |Li Lii|  Li Lii         |
 | LiLi |   LiLi          |
 |N    Li--N----Li--------.
 Li N N/LiLi N N LiLi    /
 | LiLi     LiLi        /
 |Lii/     Lii         /
 |N /      N          /
 | /   Li       Li   /
 Li       Li        /

Positions:
   0 Li     0.000000    0.149598    1.096542    ( 0.0000,  0.0000,  0.0000)
   1 Li     3.658360    0.149598    1.096542    ( 0.0000,  0.0000,  0.0000)
   2 Li     1.829180    1.983573    0.737424    ( 0.0000,  0.0000,  0.0000)
   3 Li     5.487540    1.983573    0.737424    ( 0.0000,  0.0000,  0.0000)
   4 Li     0.000000    3.817429    1.096542    ( 0.0000,  0.0000,  0.0000)
   5 Li     3.658360    3.817429    1.096542    ( 0.0000,  0.0000,  0.0000)
   6 Li     0.000000    6.100198    1.096542    ( 0.0000,  0.0000,  0.0000)
   7 Li     3.658360    6.100198    1.096542    ( 0.0000,  0.0000,  0.0000)
   8 Li     1.829180    7.934173    0.737424    ( 0.0000,  0.0000,  0.0000)
   9 Li     5.487540    7.934173    0.737424    ( 0.0000,  0.0000,  0.0000)
  10 Li     0.000000    9.768029    1.096542    ( 0.0000,  0.0000,  0.0000)
  11 Li     3.658360    9.768029    1.096542    ( 0.0000,  0.0000,  0.0000)
  12 Li     0.000000    0.985776    2.969801    ( 0.0000,  0.0000,  0.0000)
  13 Li     3.658360    0.985776    2.969801    ( 0.0000,  0.0000,  0.0000)
  14 Li     0.000000    2.981370    2.969801    ( 0.0000,  0.0000,  0.0000)
  15 Li     3.658360    2.981370    2.969801    ( 0.0000,  0.0000,  0.0000)
  16 Li     1.829180    4.958873    2.868371    ( 0.0000,  0.0000,  0.0000)
  17 Li     5.487540    4.958873    2.868371    ( 0.0000,  0.0000,  0.0000)
  18 Li     0.000000    6.936376    2.969801    ( 0.0000,  0.0000,  0.0000)
  19 Li     3.658360    6.936376    2.969801    ( 0.0000,  0.0000,  0.0000)
  20 Li     0.000000    8.931970    2.969801    ( 0.0000,  0.0000,  0.0000)
  21 Li     3.658360    8.931970    2.969801    ( 0.0000,  0.0000,  0.0000)
  22 Li     1.829180   10.909473    2.868371    ( 0.0000,  0.0000,  0.0000)
  23 Li     5.487540   10.909473    2.868371    ( 0.0000,  0.0000,  0.0000)
  24 Li     0.000000    0.025588    4.824480    ( 0.0000,  0.0000,  0.0000)
  25 Li     3.658360    0.025588    4.824480    ( 0.0000,  0.0000,  0.0000)
  26 Li     1.829180    1.983573    4.814733    ( 0.0000,  0.0000,  0.0000)
  27 Li     5.487540    1.983573    4.814733    ( 0.0000,  0.0000,  0.0000)
  28 Li     0.000000    3.941439    4.824480    ( 0.0000,  0.0000,  0.0000)
  29 Li     3.658360    3.941439    4.824480    ( 0.0000,  0.0000,  0.0000)
  30 Li     0.000000    5.976188    4.824480    ( 0.0000,  0.0000,  0.0000)
  31 Li     3.658360    5.976188    4.824480    ( 0.0000,  0.0000,  0.0000)
  32 Li     1.829180    7.934173    4.814733    ( 0.0000,  0.0000,  0.0000)
  33 Li     5.487540    7.934173    4.814733    ( 0.0000,  0.0000,  0.0000)
  34 Li     0.000000    9.892039    4.824480    ( 0.0000,  0.0000,  0.0000)
  35 Li     3.658360    9.892039    4.824480    ( 0.0000,  0.0000,  0.0000)
  36 Li     0.000000    0.973161    6.703527    ( 0.0000,  0.0000,  0.0000)
  37 Li     3.658360    0.973161    6.703527    ( 0.0000,  0.0000,  0.0000)
  38 Li     0.000000    2.993985    6.703527    ( 0.0000,  0.0000,  0.0000)
  39 Li     3.658360    2.993985    6.703527    ( 0.0000,  0.0000,  0.0000)
  40 Li     1.829180    4.958873    6.690124    ( 0.0000,  0.0000,  0.0000)
  41 Li     5.487540    4.958873    6.690124    ( 0.0000,  0.0000,  0.0000)
  42 Li     0.000000    6.923761    6.703527    ( 0.0000,  0.0000,  0.0000)
  43 Li     3.658360    6.923761    6.703527    ( 0.0000,  0.0000,  0.0000)
  44 Li     0.000000    8.944585    6.703527    ( 0.0000,  0.0000,  0.0000)
  45 Li     3.658360    8.944585    6.703527    ( 0.0000,  0.0000,  0.0000)
  46 Li     1.829180   10.909473    6.690124    ( 0.0000,  0.0000,  0.0000)
  47 Li     5.487540   10.909473    6.690124    ( 0.0000,  0.0000,  0.0000)
  48 Li     0.000000    0.023445    8.588056    ( 0.0000,  0.0000,  0.0000)
  49 Li     3.658360    0.023445    8.588056    ( 0.0000,  0.0000,  0.0000)
  50 Li     1.829180    1.983573    8.587447    ( 0.0000,  0.0000,  0.0000)
  51 Li     5.487540    1.983573    8.587447    ( 0.0000,  0.0000,  0.0000)
  52 Li     0.000000    3.943701    8.588056    ( 0.0000,  0.0000,  0.0000)
  53 Li     3.658360    3.943701    8.588056    ( 0.0000,  0.0000,  0.0000)
  54 Li     0.000000    5.974045    8.588056    ( 0.0000,  0.0000,  0.0000)
  55 Li     3.658360    5.974045    8.588056    ( 0.0000,  0.0000,  0.0000)
  56 Li     1.829180    7.934173    8.587447    ( 0.0000,  0.0000,  0.0000)
  57 Li     5.487540    7.934173    8.587447    ( 0.0000,  0.0000,  0.0000)
  58 Li     0.000000    9.894301    8.588056    ( 0.0000,  0.0000,  0.0000)
  59 Li     3.658360    9.894301    8.588056    ( 0.0000,  0.0000,  0.0000)
[...]
 130 N      0.000000   10.909473   10.496039    ( 0.0000,  0.0000,  0.0000)
 131 N      3.658360   10.909473   10.496039    ( 0.0000,  0.0000,  0.0000)
 132 N      0.000000    1.983573   12.339448    ( 0.0000,  0.0000,  0.0000)
 133 N      3.658360    1.983573   12.339448    ( 0.0000,  0.0000,  0.0000)
 134 N      0.000000    7.934173   12.339448    ( 0.0000,  0.0000,  0.0000)
 135 N      3.658360    7.934173   12.339448    ( 0.0000,  0.0000,  0.0000)
 136 N      0.000000    4.958873   14.348252    ( 0.0000,  0.0000,  0.0000)
 137 N      3.658360    4.958873   14.348252    ( 0.0000,  0.0000,  0.0000)
 138 N      0.000000   10.909473   14.348252    ( 0.0000,  0.0000,  0.0000)
 139 N      3.658360   10.909473   14.348252    ( 0.0000,  0.0000,  0.0000)
 140 N      0.000000    1.983573   15.978749    ( 0.0000,  0.0000,  0.0000)
 141 N      3.658360    1.983573   15.978749    ( 0.0000,  0.0000,  0.0000)
 142 N      0.000000    7.934173   15.978749    ( 0.0000,  0.0000,  0.0000)
 143 N      3.658360    7.934173   15.978749    ( 0.0000,  0.0000,  0.0000)
 144 Li     4.472711    6.997906   17.361914    ( 0.0000,  0.0000,  0.0000)

Unit cell:
           periodic     x           y           z      points  spacing
  1. axis:    yes    7.316720    0.000000    0.000000    36     0.2032
  2. axis:    yes    0.000000   11.901200    0.000000    60     0.1984
  3. axis:    yes    0.000000    0.000000   30.459499   150     0.2031

  Lengths:   7.316720  11.901200  30.459499
  Angles:   90.000000  90.000000  90.000000

Effective grid spacing dv^(1/3) = 0.2015

                     log10-error:    total        iterations:
           time      wfs    density  energy       fermi  poisson
iter:   1  21:18:34                -596.615532    3
iter:   2  21:18:43  -0.96  -0.50  -570.851151    35
iter:   3  21:18:53  -0.34  -0.55  -515.267013    34
iter:   4  21:19:03  -0.85  -0.82  -508.824860    37
iter:   5  21:19:14  -1.51  -0.98  -508.098216    35
iter:   6  21:19:25  -1.54  -1.21  -506.232620    30
iter:   7  21:19:35  -1.67  -1.53  -507.097209    36
[...]
 | LiLi     LiLi        /
 |Lii/     Lii         /
 |N /      N          /
 | /   Li       Li   /
 Li       Li        /

[...]

Density initialized from wave functions
 |      |     Li          |
 |     Li Li   NLi Li     |
 |      |   Li  N    Li NN|
 |   Lii|     Lii         |
 | Li   |   Li            |
 |N  LiLi  N  LiLi        |
 Li N   LiLi N N LiLi   N |
 | LiLiN|   LiLiN    Li   |
 |Li  Li|  Li  Li         |
 | LiLi |   LiLi          |
 |N    Lii N N  Lii   N   |
 Li    N| LiLi NN  LiLi N |
 | LiLi |   LiLi          |
 |Lii Li|  Lii Li         |
 |   LiLi  N  LiLi  N     |
 |  N N LiLi N N LiLi     |
 LiLi  N| LiLi  N    Li   |
 |Li Lii|  Li Lii         |
 | LiLi |   LiLi          |
 |N    Li--N----Li--------.
 Li N N/LiLi N N LiLi    /
 | LiLi     LiLi        /
 |Lii/     Lii         /
 |N /      N          /
 | /   Li       Li   /
 Li       Li        /

[...]

Density initialized from wave functions
 |      |      Li         |
 |     Li Li   NLi Li     |
 |    N |   Li  N    Li  N|
 |   Lii|     Lii         |
 | Li   |   Li            |
 |   LiLi  N  LiLi  N     |
 Li N   LiLi N N LiLi   N |
 | LiLiN|   LiLiN    Li   |
 |Li  Li|  Li  Li         |
 | LiLi |   LiLi          |
 |N    Lii N N  Lii   N   |
 Li   NN| LiLi NN  LiLi   |
 | LiLi |   LiLi          |
 |Lii Li|  Lii Li         |
 |   LiLi  N  LiLi  N     |
 |  N N LiLi N N LiLi     |
 LiLi  N| LiLi  N    Li   |
 |Li Lii|  Li Lii         |
 | LiLi |   LiLi          |
 |N    Li--N----Li--------.
 Li N N/LiLi N N LiLi    /
 | LiLi     LiLi        /
 |Lii/     Lii         /
 |N /      N          /
 | /   Li       Li   /
 Li       Li        /

[...]

Density initialized from wave functions
 |      |      Li         |
 |     Li Li   NLi Li     |
 |      |   Li  N    Li NN|
 |   Lii|     Lii         |
 | Li   |   Li            |
 |   LiLi  N  LiLi  N     |
 Li N   LiLi N N LiLi   N |
 | LiLiN|   LiLiN    Li   |
 |Li  Li|  Li  Li         |
 | LiLi |   LiLi          |
 |N    Lii N N  Lii   N   |
 Li   NN| LiLi NN  LiLi   |
 | LiLi |   LiLi          |
 |Lii Li|  Lii Li         |
 |   LiLi  N  LiLi  N     |
 |  N N LiLi N N LiLi     |
 LiLi  N| LiLi  N    Li   |
 |Li Lii|  Li Lii         |
 | LiLi |   LiLi          |
 |N    Li--N----Li--------.
 Li N N/LiLi N N LiLi    /
 | LiLi     LiLi        /
 |Lii/     Lii         /
 |N /      N          /
 | /   Li       Li   /
 Li       Li        /

[...]

Density initialized from wave functions
 |      |      Li         |
 |     Li Li   NLi Li     |
 |     N|   Li  N    Li N |
 |   Lii|     Lii         |
 | Li   |   Li            |
 |   LiLi  N  LiLi  N     |
 Li N N LiLi N N LiLi     |
 | LiLiN|   LiLiN    Li   |
 |Li  Li|  Li  Li         |
 | LiLi |   LiLi          |
 |     Lii N N  Lii N N   |
 Li   NN| LiLi NN  LiLi   |
 | LiLi |   LiLi          |
 |Lii Li|  Lii Li         |
 |N  LiLi  N  LiLi        |
 |  N N LiLi N N LiLi     |
 LiLi  N| LiLi  N    Li   |
 |Li Lii|  Li Lii         |
 | LiLi |   LiLi          |
 |N    Li--N----Li--------.
 Li N N/LiLi N N LiLi    /
 | LiLi     LiLi        /
 |Lii/     Lii         /
 |N /      N          /
 | /   Li       Li   /
 Li       Li        /

[...]

Density initialized from wave functions
 |      |      Li         |
 |     Li Li   NLi Li     |
 |     N|   Li  N    Li N |
 |   Lii|     Lii         |
 | Li   |   Li            |
 |   LiLi  N  LiLi  N     |
 Li N N LiLi N N LiLi     |
 | LiLiN|   LiLiN    Li   |
 |Li  Li|  Li  Li         |
 | LiLi |   LiLi          |
 |     Lii N N  Lii N N   |
 Li   NN| LiLi NN  LiLi   |
 | LiLi |   LiLi          |
 |Lii Li|  Lii Li         |
 |N  LiLi  N  LiLi        |
 |  N N LiLi N N LiLi     |
 LiLi  N| LiLi  N    Li   |
 |Li Lii|  Li Lii         |
 | LiLi |   LiLi          |
 |N    Li--N----Li--------.
 Li N N/LiLi N N LiLi    /
 | LiLi     LiLi        /
 |Lii/     Lii         /
 |N /      N          /
 | /   Li       Li   /
 Li       Li        /

[...]

Density initialized from wave functions
 |      |      Li         |
 |     Li Li   NLi Li     |
 |     N|   Li  N    Li N |
 |   Lii|     Lii         |
 | Li   |   Li            |
 |   LiLi  N  LiLi  N     |
 Li   N LiLi N N LiLi N   |
 | LiLi |   LiLiN    Li  N|
 |Li  Li|  Li  Li         |
 | LiLi |   LiLi          |
 |     Lii N N  Lii N N   |
 Li    N| LiLi NN  LiLi N |
 | LiLi |   LiLi          |
 |Lii Li|  Lii Li         |
 |N  LiLi  N  LiLi        |
 |  N N LiLi N N LiLi     |
 LiLi  N| LiLi  N    Li   |
 |Li Lii|  Li Lii         |
 | LiLi |   LiLi          |
 |N    Li--N----Li--------.
 Li N N/LiLi N N LiLi    /
 | LiLi     LiLi        /
 |Lii/     Lii         /
 |N /      N          /
 | /   Li       Li   /
 Li       Li        /

[...]

Density initialized from wave functions
 |      |      Li         |
 |     Li Li   NLi Li     |
 |      |   Li  N    Li NN|
 |   Lii|     Lii         |
 | Li   |   Li            |
 |N  LiLi  N  LiLi        |
 Li   N LiLi N N LiLi N   |
 | LiLi |   LiLiN    Li  N|
 |Li  Li|  Li  Li         |
 | LiLi |   LiLi          |
 |  N  Lii N N  Lii N     |
 Li    N| LiLi NN  LiLi N |
 | LiLi |   LiLi          |
 |Lii Li|  Lii Li         |
 |   LiLi  N  LiLi  N     |
 |  N N LiLi N N LiLi     |
 LiLi  N| LiLi  N    Li   |
 |Li Lii|  Li Lii         |
 | LiLi |   LiLi          |
 |N    Li--N----Li--------.
 Li N N/LiLi N N LiLi    /
 | LiLi     LiLi        /
 |Lii/     Lii         /
 |N /      N          /
 | /   Li       Li   /
 Li       Li        /

[...]

System changes: positions

Initializing position-dependent things.

Density initialized from wave functions
 |      |      Li         |
 |     Li Li   NLi Li     |
 |     N|   Li  N    Li N |
 |   Lii|     Lii         |
 | Li   |   Li            |
 |N  LiLi  N  LiLi        |
 Li   N LiLi N N LiLi N   |
 | LiLi |   LiLiN    Li  N|
 |Li  Li|  Li  Li         |
 | LiLi |   LiLi          |
 |  N  Lii N N  Lii N     |
 Li    N| LiLi NN  LiLi N |
 | LiLi |   LiLi          |
 |Lii Li|  Lii Li         |
 |N  LiLi  N  LiLi        |
 |  N N LiLi N N LiLi     |
 LiLi  N| LiLi  N    Li   |
 |Li Lii|  Li Lii         |
 | LiLi |   LiLi          |
 |N    Li--N----Li--------.
 Li N N/LiLi N N LiLi    /
 | LiLi     LiLi        /
 |Lii/     Lii         /
 |N /      N          /
 | /   Li       Li   /
 Li       Li        /

Positions:
   0 Li     0.000000    0.149598    1.096542    ( 0.0000,  0.0000,  0.0000)
   1 Li     3.658360    0.149598    1.096542    ( 0.0000,  0.0000,  0.0000)
   2 Li     1.829180    1.983573    0.737424    ( 0.0000,  0.0000,  0.0000)
   3 Li     5.487540    1.983573    0.737424    ( 0.0000,  0.0000,  0.0000)
   4 Li     0.000000    3.817429    1.096542    ( 0.0000,  0.0000,  0.0000)
   5 Li     3.658360    3.817429    1.096542    ( 0.0000,  0.0000,  0.0000)
   6 Li     0.000000    6.100198    1.096542    ( 0.0000,  0.0000,  0.0000)
   7 Li     3.658360    6.100198    1.096542    ( 0.0000,  0.0000,  0.0000)
   8 Li     1.829180    7.934173    0.737424    ( 0.0000,  0.0000,  0.0000)
   9 Li     5.487540    7.934173    0.737424    ( 0.0000,  0.0000,  0.0000)
  10 Li     0.000000    9.768029    1.096542    ( 0.0000,  0.0000,  0.0000)
  11 Li     3.658360    9.768029    1.096542    ( 0.0000,  0.0000,  0.0000)
  12 Li     0.000000    0.985776    2.969801    ( 0.0000,  0.0000,  0.0000)
  13 Li     3.658360    0.985776    2.969801    ( 0.0000,  0.0000,  0.0000)
  14 Li     0.000000    2.981370    2.969801    ( 0.0000,  0.0000,  0.0000)
  15 Li     3.658360    2.981370    2.969801    ( 0.0000,  0.0000,  0.0000)
  16 Li     1.829180    4.958873    2.868371    ( 0.0000,  0.0000,  0.0000)
  17 Li     5.487540    4.958873    2.868371    ( 0.0000,  0.0000,  0.0000)
  18 Li     0.000000    6.936376    2.969801    ( 0.0000,  0.0000,  0.0000)
  19 Li     3.658360    6.936376    2.969801    ( 0.0000,  0.0000,  0.0000)
  20 Li     0.000000    8.931970    2.969801    ( 0.0000,  0.0000,  0.0000)
  21 Li     3.658360    8.931970    2.969801    ( 0.0000,  0.0000,  0.0000)
  22 Li     1.829180   10.909473    2.868371    ( 0.0000,  0.0000,  0.0000)
  23 Li     5.487540   10.909473    2.868371    ( 0.0000,  0.0000,  0.0000)
  24 Li     0.000000    0.025588    4.824480    ( 0.0000,  0.0000,  0.0000)
  25 Li     3.658360    0.025588    4.824480    ( 0.0000,  0.0000,  0.0000)
  26 Li     1.829180    1.983573    4.814733    ( 0.0000,  0.0000,  0.0000)
  27 Li     5.487540    1.983573    4.814733    ( 0.0000,  0.0000,  0.0000)
  28 Li     0.000000    3.941439    4.824480    ( 0.0000,  0.0000,  0.0000)
  29 Li     3.658360    3.941439    4.824480    ( 0.0000,  0.0000,  0.0000)
  30 Li     0.000000    5.976188    4.824480    ( 0.0000,  0.0000,  0.0000)
  31 Li     3.658360    5.976188    4.824480    ( 0.0000,  0.0000,  0.0000)
  32 Li     1.829180    7.934173    4.814733    ( 0.0000,  0.0000,  0.0000)
  33 Li     5.487540    7.934173    4.814733    ( 0.0000,  0.0000,  0.0000)
  34 Li     0.000000    9.892039    4.824480    ( 0.0000,  0.0000,  0.0000)
  35 Li     3.658360    9.892039    4.824480    ( 0.0000,  0.0000,  0.0000)
  36 Li     0.000000    0.973161    6.703527    ( 0.0000,  0.0000,  0.0000)
  37 Li     3.658360    0.973161    6.703527    ( 0.0000,  0.0000,  0.0000)
  38 Li     0.000000    2.993985    6.703527    ( 0.0000,  0.0000,  0.0000)
  39 Li     3.658360    2.993985    6.703527    ( 0.0000,  0.0000,  0.0000)
  40 Li     1.829180    4.958873    6.690124    ( 0.0000,  0.0000,  0.0000)
  41 Li     5.487540    4.958873    6.690124    ( 0.0000,  0.0000,  0.0000)
  42 Li     0.000000    6.923761    6.703527    ( 0.0000,  0.0000,  0.0000)
  43 Li     3.658360    6.923761    6.703527    ( 0.0000,  0.0000,  0.0000)
  44 Li     0.000000    8.944585    6.703527    ( 0.0000,  0.0000,  0.0000)
  45 Li     3.658360    8.944585    6.703527    ( 0.0000,  0.0000,  0.0000)
  46 Li     1.829180   10.909473    6.690124    ( 0.0000,  0.0000,  0.0000)
  47 Li     5.487540   10.909473    6.690124    ( 0.0000,  0.0000,  0.0000)
  48 Li     0.000000    0.023445    8.588056    ( 0.0000,  0.0000,  0.0000)
  49 Li     3.658360    0.023445    8.588056    ( 0.0000,  0.0000,  0.0000)
  50 Li     1.829180    1.983573    8.587447    ( 0.0000,  0.0000,  0.0000)
  51 Li     5.487540    1.983573    8.587447    ( 0.0000,  0.0000,  0.0000)
  52 Li     0.000000    3.943701    8.588056    ( 0.0000,  0.0000,  0.0000)
  53 Li     3.658360    3.943701    8.588056    ( 0.0000,  0.0000,  0.0000)
  54 Li     0.000000    5.974045    8.588056    ( 0.0000,  0.0000,  0.0000)
  55 Li     3.658360    5.974045    8.588056    ( 0.0000,  0.0000,  0.0000)
  56 Li     1.829180    7.934173    8.587447    ( 0.0000,  0.0000,  0.0000)
  57 Li     5.487540    7.934173    8.587447    ( 0.0000,  0.0000,  0.0000)
  58 Li     0.000000    9.894301    8.588056    ( 0.0000,  0.0000,  0.0000)
  59 Li     3.658360    9.894301    8.588056    ( 0.0000,  0.0000,  0.0000)
[...]
 130 N     -0.000040   10.908180   10.495078    ( 0.0000,  0.0000,  0.0000)
 131 N      3.658397   10.903988   10.508867    ( 0.0000,  0.0000,  0.0000)
 132 N     -0.000027    1.981189   12.334438    ( 0.0000,  0.0000,  0.0000)
 133 N      3.658394    1.983217   12.347785    ( 0.0000,  0.0000,  0.0000)
 134 N      0.000038    7.936342   12.336381    ( 0.0000,  0.0000,  0.0000)
 135 N      3.658275    7.934422   12.400878    ( 0.0000,  0.0000,  0.0000)
 136 N     -0.000562    4.965431   14.302124    ( 0.0000,  0.0000,  0.0000)
 137 N      3.658541    5.001545   14.377374    ( 0.0000,  0.0000,  0.0000)
 138 N      0.000054   10.902301   14.343681    ( 0.0000,  0.0000,  0.0000)
 139 N      3.657959   10.867165   14.377048    ( 0.0000,  0.0000,  0.0000)
 140 N      0.000172    1.986143   15.962951    ( 0.0000,  0.0000,  0.0000)
 141 N      3.658136    1.983832   15.949450    ( 0.0000,  0.0000,  0.0000)
 142 N     -0.000400    7.931658   15.957538    ( 0.0000,  0.0000,  0.0000)
 143 N      3.657925    7.932900   16.364740    ( 0.0000,  0.0000,  0.0000)
 144 Li     3.654930    7.924910   18.240096    ( 0.0000,  0.0000,  0.0000)

Unit cell:
           periodic     x           y           z      points  spacing
  1. axis:    yes    7.316720    0.000000    0.000000    36     0.2032
  2. axis:    yes    0.000000   11.901200    0.000000    60     0.1984
  3. axis:    yes    0.000000    0.000000   30.459499   150     0.2031

  Lengths:   7.316720  11.901200  30.459499
  Angles:   90.000000  90.000000  90.000000

Effective grid spacing dv^(1/3) = 0.2015

                     log10-error:    total        iterations:
           time      wfs    density  energy       fermi  poisson
iter:   1  22:38:44  -4.08         -507.133674    4
iter:   2  22:38:53  -5.40  -3.15  -507.132926    5
iter:   3  22:39:01  -6.21  -3.23  -507.132600    4
iter:   4  22:39:10  -5.47  -3.34  -507.132283    4
iter:   5  22:39:18  -6.30  -3.44  -507.132148    4
iter:   6  22:39:27  -6.17  -3.55  -507.132057    4
iter:   7  22:39:35  -7.26  -3.70  -507.131968    4
iter:   8  22:39:44  -6.89  -4.00  -507.131965    3
iter:   9  22:39:52  -7.49  -4.11  -507.131953    3
iter:  10  22:40:01  -8.57  -4.24  -507.131952    3

Converged after 10 iterations.

Dipole moment: (0.055411, -10.266336, -47.431561) |e|*Ang

Energy contributions relative to reference atoms: (reference = -75445.846558)

Kinetic:       +578.835973
Potential:     -398.155909
External:        +0.000000
XC:            -684.353467
Entropy (-ST):   -0.009133
Local:           -3.453982
Free energy:   -507.136518
Extrapolated:  -507.131952

Fermi level: 0.40093

Showing only first 2 kpts
 Kpt  Band  Eigenvalues  Occupancy
  0   142     -0.62011    0.66667
  0   143     -0.56276    0.66667
  0   144      0.09006    0.66667
  0   145      0.41573    0.12363

  1   142     -0.73230    0.66667
  1   143     -0.67398    0.66667
  1   144      0.41787    0.10348
  1   145      0.68781    0.00000

No gap

Forces in eV/Ang:
  0 Li    0.00000   -0.00705   -0.03825
  1 Li   -0.00000   -0.00701   -0.03849
  2 Li   -0.00017   -0.00012    0.03930
  3 Li    0.00017   -0.00012    0.03930
  4 Li   -0.00000    0.00793   -0.03836
  5 Li    0.00000    0.00794   -0.03855
  6 Li   -0.00000   -0.00738   -0.03819
  7 Li    0.00000   -0.00742   -0.03843
  8 Li   -0.00016   -0.00009    0.03982
  9 Li    0.00016   -0.00009    0.03982
 10 Li    0.00000    0.00839   -0.03831
 11 Li   -0.00000    0.00838   -0.03860
 12 Li    0.00000    0.00489    0.01342
 13 Li   -0.00000    0.00471    0.01217
 14 Li   -0.00000   -0.00492    0.01348
 15 Li    0.00000   -0.00477    0.01219
 16 Li   -0.00089   -0.00065   -0.02990
 17 Li    0.00089   -0.00065   -0.02990
 18 Li    0.00000    0.00385    0.01264
 19 Li   -0.00000    0.00349    0.01104
 20 Li    0.00000   -0.00397    0.01260
 21 Li   -0.00000   -0.00358    0.01103
 22 Li   -0.00083    0.00060   -0.02998
 23 Li    0.00083    0.00060   -0.02998
 24 Li    0.00000   -0.01465    0.00966
 25 Li   -0.00000   -0.01475    0.00603
 26 Li   -0.00255    0.00003   -0.00262
 27 Li    0.00255    0.00003   -0.00262
 28 Li   -0.00000    0.01569    0.00993
 29 Li    0.00000    0.01550    0.00625
 30 Li   -0.00000   -0.01655    0.00987
 31 Li    0.00000   -0.01706    0.00570
 32 Li   -0.00338   -0.00022   -0.00408
 33 Li    0.00338   -0.00022   -0.00407
 34 Li    0.00000    0.01681    0.00968
 35 Li   -0.00000    0.01761    0.00556
 36 Li   -0.00000    0.00303    0.01845
 37 Li   -0.00001    0.00291    0.01601
 38 Li    0.00001   -0.00322    0.01859
 39 Li   -0.00002   -0.00275    0.01605
 40 Li   -0.00713   -0.00277    0.01401
 41 Li    0.00713   -0.00275    0.01398
 42 Li   -0.00003   -0.00059    0.01784
 43 Li    0.00002   -0.00488    0.01475
 44 Li   -0.00004    0.00058    0.01802
 45 Li    0.00003    0.00462    0.01504
 46 Li   -0.00664    0.00277    0.01346
 47 Li    0.00664    0.00276    0.01349
 48 Li   -0.00007    0.00279    0.00424
 49 Li    0.00006    0.00601    0.00331
 50 Li   -0.01070    0.00087   -0.00431
 51 Li    0.01053    0.00081   -0.00430
 52 Li    0.00010   -0.00333    0.00539
 53 Li   -0.00008   -0.00540    0.00491
 54 Li    0.00007   -0.00010    0.01001
 55 Li   -0.00005    0.00170    0.01242
 56 Li   -0.01557   -0.00083   -0.00513
 57 Li    0.01549   -0.00076   -0.00517
 58 Li   -0.00010   -0.00005    0.00939
 59 Li    0.00009   -0.00268    0.01127
[...]
130 N     0.00058    0.00166   -0.01041
131 N    -0.00047    0.00179    0.01628
132 N     0.00052   -0.00011   -0.00159
133 N    -0.00050    0.00037   -0.00928
134 N    -0.00079    0.00154   -0.00219
135 N     0.00154    0.00156   -0.00169
136 N     0.00869   -0.00405    0.00352
137 N    -0.00352   -0.00560    0.01221
138 N    -0.00223    0.00608   -0.01209
139 N     0.00692    0.00283    0.00719
140 N    -0.00188   -0.01968    0.00898
141 N     0.00226   -0.01610    0.00435
142 N     0.00399    0.02041    0.00098
143 N     0.00444    0.03426    0.01940
144 Li    0.00386   -0.00097   -0.00836