User:   jngwng01@n716023
Date:   Mon Sep  6 11:31:50 2021
Arch:   x86_64
Pid:    16232
Python: 3.8.5
gpaw:   /uls/7/gpaw-20.1.0/lib/python3.8/site-packages/gpaw-20.1.0-py3.8-linux-x86_64.egg/gpaw
_gpaw:  /uls/7/gpaw-20.1.0/lib/python3.8/site-packages/gpaw-20.1.0-py3.8-linux-x86_64.egg/
        _gpaw.cpython-38-x86_64-linux-gnu.so
ase:    /uls/7/gpaw-20.1.0/lib/python3.8/site-packages/ase-3.20.1-py3.8.egg/ase (version 3.20.1)
numpy:  /uls/7/gpaw-20.1.0/lib/python3.8/site-packages/numpy (version 1.19.2)
scipy:  /uls/7/gpaw-20.1.0/lib/python3.8/site-packages/scipy-1.5.2-py3.8-linux-x86_64.egg/scipy (version 1.5.2)
units:  Angstrom and eV
cores: 32
OMP_NUM_THREADS: 1

Input parameters:
  convergence: {eigenstates: 1e-07}
  kpts: [5 6 1]
  mode: {ecut: 500.0,
         gammacentered: False,
         name: pw}
  occupations: {name: fermi-dirac,
                width: 0.03}
  random: True
  xc: {backend: libvdwxc,
       libvdwxc_name: vdW-DF-cx,
       name: vdW-DF-cx,
       semilocal_xc: GGA_X_LV_RPW86+LDA_C_PW,
       setup_name: PBE,
       vdwcoef: 1.0}

System changes: positions, numbers, cell, pbc, initial_charges, initial_magmoms

Initialize ...

Li-setup:
  name: Lithium
  id: 830b4218f175192f93f959cfc0aad614
  Z: 3
  valence: 1
  core: 2
  charge: 0.0
  file: /uls/7/gpaw-20.1.0/setups/gpaw-setups-0.9.20000/Li.PBE.gz
  compensation charges: gauss, rc=0.33, lmax=2
  cutoffs: 1.91(filt), 2.55(core),
  valence states:
                energy  radius
    2s(1.00)    -2.874   1.058
    2p(0.00)    -1.090   1.058
    *s          24.337   1.058

  Using partial waves for Li as LCAO basis

N-setup:
  name: Nitrogen
  id: f7500608b86eaa90eef8b1d9a670dc53
  Z: 7
  valence: 5
  core: 2
  charge: 0.0
  file: /uls/7/gpaw-20.1.0/setups/gpaw-setups-0.9.20000/N.PBE.gz
  compensation charges: gauss, rc=0.18, lmax=2
  cutoffs: 1.11(filt), 0.96(core),
  valence states:
                energy  radius
    2s(2.00)   -18.583   0.603
    2p(3.00)    -7.089   0.529
    *s           8.629   0.603
    *p          20.123   0.529
    *d           0.000   0.577

  Using partial waves for N as LCAO basis

Reference energy: -25283.807400

Spin-paired calculation

Occupation numbers:
  Fermi-Dirac: width=0.0300 eV

Convergence criteria:
  Maximum total energy change: 0.0005 eV / electron
  Maximum integral of absolute density change: 0.0001 electrons
  Maximum integral of absolute eigenstate change: 1e-07 eV^2
  Maximum number of iterations: 333

Symmetries present (total): 1

  ( 1  0  0)
  ( 0  1  0)
  ( 0  0  1)

30 k-points: 5 x 6 x 1 Monkhorst-Pack grid
15 k-points in the irreducible part of the Brillouin zone
       k-points in crystal coordinates                weights
   0:     0.00000000    0.08333333    0.00000000          2/30
   1:     0.00000000    0.25000000    0.00000000          2/30
   2:     0.00000000    0.41666667    0.00000000          2/30
   3:     0.20000000   -0.41666667    0.00000000          2/30
   4:     0.20000000   -0.25000000    0.00000000          2/30
   5:     0.20000000   -0.08333333    0.00000000          2/30
   6:     0.20000000    0.08333333    0.00000000          2/30
   7:     0.20000000    0.25000000    0.00000000          2/30
   8:     0.20000000    0.41666667    0.00000000          2/30
   9:     0.40000000   -0.41666667    0.00000000          2/30
          ...
  14:     0.40000000    0.41666667    0.00000000          2/30

Wave functions: Plane wave expansion
  Cutoff energy: 500.000 eV
  Number of coefficients (min, max): 32335, 32478
  Pulay-stress correction: 0.000000 eV/Ang^3 (de/decut=0.000000)
  Using FFTW library
  ScaLapack parameters: grid=1x1, blocksize=None
  Wavefunction extrapolation:
    Improved wavefunction reuse through dual PAW basis

Eigensolver
   Davidson(niter=2, smin=None, normalize=True)

Densities:
  Coarse grid: 40*32*160 grid
  Fine grid: 80*64*320 grid
  Total Charge: 0.000000

Density mixing:
  Method: separate
  Backend: pulay
  Linear mixing parameter: 0.05
  Mixing with 5 old densities
  Damping of long wave oscillations: 50

Hamiltonian:
  XC and Coulomb potentials evaluated on a 80*64*320 grid
  Using the vdW-DF-cx Exchange-Correlation functional

XC parameters: vdW-DF-cx with libvdwxc
  Semilocal: GGA_X_LV_RPW86+LDA_C_PW with 2 nearest neighbor stencil
  Local blocksize: 3 x 64 x 320
  PAW datasets: PBE

Total number of cores used: 32
Parallelization over k-points: 8
Domain decomposition: 1 x 1 x 4
                      2 x 2 x 8 (xc only)

Number of atoms: 49
Number of atomic orbitals: 196
Number of bands in calculation: 63
Number of valence electrons: 97
Bands to converge: occupied

... initialized

Initializing position-dependent things.

Density initialized from atomic densities
Creating initial wave functions:
  63 bands from LCAO basis set

 |   |   N  Lii  N   Li
 |   |     Li         |
 |   | Li  N    Li    |
 |   |LiLi     Li Li  |
 |   |   N Li    N Li |
 |  Li      Li        |
 |   | Li  N    Li N  |
 |   |Li LLi  Li Li   |
 Li  |                |
 |Li |   N Li    N    |
 |  Li      Li        |
 |N  .-Li--N----Li----.
 |  / Li Li   Li Li  /
 Li/      Li        /
 |/i       Li      /

Positions:
   0 Li     1.753389    5.061850    0.000000    ( 0.0000,  0.0000,  0.0000)
   1 Li     0.000000    2.024928    0.000000    ( 0.0000,  0.0000,  0.0000)
   2 Li     3.506756    2.024928    0.000000    ( 0.0000,  0.0000,  0.0000)
   3 Li     5.260124    5.061850    0.000000    ( 0.0000,  0.0000,  0.0000)
   4 Li     1.753389    3.037256    1.946139    ( 0.0000,  0.0000,  0.0000)
   5 Li     0.000000    0.000334    1.946139    ( 0.0000,  0.0000,  0.0000)
   6 Li     3.506756    0.000334    1.946139    ( 0.0000,  0.0000,  0.0000)
   7 Li     5.260124    3.037256    1.946139    ( 0.0000,  0.0000,  0.0000)
   8 Li     1.753367    1.012631    1.946139    ( 0.0000,  0.0000,  0.0000)
   9 Li     0.000000    4.049553    1.946139    ( 0.0000,  0.0000,  0.0000)
  10 Li     3.506735    4.049553    1.946139    ( 0.0000,  0.0000,  0.0000)
  11 Li     5.260103    1.012631    1.946139    ( 0.0000,  0.0000,  0.0000)
  12 Li     1.744970    5.082030    3.988251    ( 0.0000,  0.0000,  0.0000)
  13 Li     0.000569    2.027091    3.905779    ( 0.0000,  0.0000,  0.0000)
  14 Li     3.505659    2.017999    3.959361    ( 0.0000,  0.0000,  0.0000)
  15 Li     5.266831    5.082110    3.993089    ( 0.0000,  0.0000,  0.0000)
  16 Li     1.754840    3.094140    5.784783    ( 0.0000,  0.0000,  0.0000)
  17 Li     0.000891    0.052042    5.964922    ( 0.0000,  0.0000,  0.0000)
  18 Li     3.504669    0.063898    6.137274    ( 0.0000,  0.0000,  0.0000)
  19 Li     5.257451    3.093889    5.798460    ( 0.0000,  0.0000,  0.0000)
  20 Li     1.758322    1.061992    5.827677    ( 0.0000,  0.0000,  0.0000)
  21 Li     0.001288    4.103828    5.972543    ( 0.0000,  0.0000,  0.0000)
  22 Li     3.504658    4.106816    6.037728    ( 0.0000,  0.0000,  0.0000)
  23 Li     5.254059    1.061792    5.840012    ( 0.0000,  0.0000,  0.0000)
  24 Li     1.529164    5.086966    8.017527    ( 0.0000,  0.0000,  0.0000)
  25 Li    -0.003117    2.109867    7.780310    ( 0.0000,  0.0000,  0.0000)
  26 Li     3.506216    2.170639    7.857228    ( 0.0000,  0.0000,  0.0000)
  27 Li     5.486452    5.083454    8.015528    ( 0.0000,  0.0000,  0.0000)
  28 Li     1.803034    3.178262    9.651263    ( 0.0000,  0.0000,  0.0000)
  29 Li    -0.003198    0.204281   10.681429    ( 0.0000,  0.0000,  0.0000)
  30 Li     3.502015   -0.027819    9.680911    ( 0.0000,  0.0000,  0.0000)
  31 Li     5.206928    3.182979    9.653356    ( 0.0000,  0.0000,  0.0000)
  32 Li     1.668499    1.066906    9.660141    ( 0.0000,  0.0000,  0.0000)
  33 Li    -0.001705    4.035286   10.503445    ( 0.0000,  0.0000,  0.0000)
  34 Li     3.499114    4.126616   10.707673    ( 0.0000,  0.0000,  0.0000)
  35 Li     5.344435    1.060419    9.634307    ( 0.0000,  0.0000,  0.0000)
  36 N      1.753389    5.061910    1.929076    ( 0.0000,  0.0000,  0.0000)
  37 N      0.000000    2.024989    1.929076    ( 0.0000,  0.0000,  0.0000)
  38 N      3.506756    2.024989    1.929076    ( 0.0000,  0.0000,  0.0000)
  39 N      5.260124    5.061910    1.929076    ( 0.0000,  0.0000,  0.0000)
  40 N      1.732070    5.112538    5.973488    ( 0.0000,  0.0000,  0.0000)
  41 N     -0.000889    2.076143    5.811219    ( 0.0000,  0.0000,  0.0000)
  42 N      3.505491    2.083090    5.928076    ( 0.0000,  0.0000,  0.0000)
  43 N      5.280790    5.112647    5.966455    ( 0.0000,  0.0000,  0.0000)
  44 N      1.728828    5.152850   10.026437    ( 0.0000,  0.0000,  0.0000)
  45 N     -0.004048    2.149032    9.643478    ( 0.0000,  0.0000,  0.0000)
  46 N      3.506525    2.067116    9.860318    ( 0.0000,  0.0000,  0.0000)
  47 N      5.277603    5.156228   10.039334    ( 0.0000,  0.0000,  0.0000)
  48 Li     3.575656    1.433458   11.657245    ( 0.0000,  0.0000,  0.0000)

Unit cell:
           periodic     x           y           z      points  spacing
  1. axis:    yes    7.013470    0.000000    0.000000    40     0.1753
  2. axis:    yes    0.000000    6.073843    0.000000    32     0.1898
  3. axis:    yes    0.000000    0.000000   29.936001   160     0.1871

  Lengths:   7.013470   6.073843  29.936001
  Angles:   90.000000  90.000000  90.000000

Effective grid spacing dv^(1/3) = 0.1840

                     log10-error:    total        iterations:
           time      wfs    density  energy       fermi  poisson
iter:   1  11:32:19                -186.291846    3
iter:   2  11:32:30  -0.99  -0.51  -176.260784    32
iter:   3  11:32:41  -0.37  -0.56  -183.963129    37
iter:   4  11:32:52  -1.90  -0.52  -169.381282    35
iter:   5  11:33:03  -2.83  -0.67  -167.561320    3
iter:   6  11:33:14  -1.86  -0.68  -159.834622    29
iter:   7  11:33:25  -1.58  -0.78  -157.108066    5
iter:   8  11:33:36  -1.66  -0.87  -156.079394    5
iter:   9  11:33:48  -2.20  -0.96  -156.549854    5
iter:  10  11:33:59  -1.54  -0.94  -156.150175    32
iter:  11  11:34:10  -2.48  -1.37  -156.210985    3
iter:  12  11:34:21  -1.39  -1.36  -158.365775    31
iter:  13  11:34:32  -2.27  -1.04  -156.306722    5
iter:  14  11:34:43  -2.13  -1.32  -155.813747    3
iter:  15  11:34:54  -2.32  -1.44  -155.303270    34
iter:  16  11:35:05  -2.77  -1.72  -155.192602    4
iter:  17  11:35:16  -3.61  -1.71  -155.181328    3
iter:  18  11:35:27  -3.69  -1.71  -155.132605    3
iter:  19  11:35:38  -4.09  -1.74  -155.112593    3
iter:  20  11:35:49  -4.92  -1.75  -155.118603    3
iter:  21  11:36:00  -4.14  -1.75  -155.189094    4
iter:  22  11:36:12  -3.83  -1.68  -155.098761    3
iter:  23  11:36:23  -3.17  -1.76  -155.048586    5
iter:  24  11:36:34  -3.31  -1.93  -155.057326    4
iter:  25  11:36:45  -3.97  -2.16  -155.060471    4
iter:  26  11:36:56  -4.60  -2.29  -155.060070    4
iter:  27  11:37:07  -4.64  -2.34  -155.059215    4
iter:  28  11:37:18  -4.70  -2.39  -155.058952    3
iter:  29  11:37:29  -4.65  -2.46  -155.058367    3
iter:  30  11:37:40  -4.88  -2.55  -155.058245    3
iter:  31  11:37:51  -4.34  -2.61  -155.059902    4
iter:  32  11:38:02  -4.50  -2.72  -155.058666    4
iter:  33  11:38:13  -5.21  -2.81  -155.059390    3
[...]
 |  Li   N  Li   N    |
 |   |       Li       |
 |   | Li Li    Li    |
 |   |LiLi N   Li Li  |
 |Li |   N Li    N    |
 |  Li      Li        |
 |N  | Li  N    Li    |
 |   |Li LLi  Li Li   |
 |   |            Li  |
 |   |   N Li    N Li |
 |  Li      Li        |
 |N  .-Li--N----Li----.
 |  / Li Li   Li Li  /
 Li/      Li        /
 |/i       Li      /

[...]

Density initialized from wave functions
 |  Li   N  Li   N    |
 |   |       Li       |
 |   | Li Li    Li    |
 |   |LiLi N   Li Li  |
 |Li |   N Li    N    |
 |   |      Li       Li
 |N  | Li  N    Li    |
 |   |Li LLi  Li Li   |
 |   |            Li  |
 |   |   N Li    N Li |
 |  Li      Li        |
 |N  .-Li--N----Li----.
 |  / Li Li   Li Li  /
 Li/      Li        /
 |/i       Li      /

[...]

Density initialized from wave functions
 |  Li   N  Li   N    |
 |   |       Li       |
 |   | Li  Li   Li    |
 |   |LiLi N   Li Li  |
 |Li |   N Li    N    |
 |   |      Li       Li
 |N  | Li  N    Li    |
 |   |Li LLi  Li Li   |
 |   |            Li  |
 |   |   N Li    N Li |
 |  Li      Li        |
 |N  .-Li--N----Li----.
 |  / Li Li   Li Li  /
 Li/      Li        /
 |/i       Li      /

[...]

Density initialized from wave functions
 |  Li   N  Li   N    |
 |   |       Li       |
 |   | Li  Li   Li    |
 |   |LiLi N      Li  |
 |   |         Li     |
 |Li |   N Li    N    |
 |   |      Li       Li
 |N  | Li  N    Li    |
 |   |Li LLi  Li Li   |
 |   |            Li  |
 |   |   N Li    N Li |
 |  Li      Li        |
 |N  .-Li--N----Li----.
 |  / Li Li   Li Li  /
 Li/      Li        /
 |/i       Li      /

[...]

Density initialized from wave functions
 |  Li   N  Li   N    |
 |   |       Li       |
 |   | Li  Li   Li    |
 |   |LiLi N      Li  |
 |   |         Li     |
 |Li |   N Li    N    |
 |   |      Li       Li
 |N  | Li  N    Li    |
 |   |Li LLi  Li Li   |
 |   |            Li  |
 |   |   N Li    N Li |
 |  Li      Li        |
 |N  .-Li--N----Li----.
 |  / Li Li   Li Li  /
 Li/      Li        /
 |/i       Li      /

[...]

Density initialized from wave functions
 |  Li   N  Li   N    |
 |   |       Li       |
 |   | Li  Li   Li    |
 |   |LiLi N      Li  |
 |   |         Li     |
 | Li|   N Li    N    |
 |   |      Li       Li
 |   | Li  N    Li N  |
 |   |Li LLi  Li Li   |
 |   |            Li  |
 |   |   N Li    N Li |
 |  Li      Li        |
 |N  .-Li--N----Li----.
 |  / Li Li   Li Li  /
 Li/      Li        /
 |/i       Li      /

[...]

Density initialized from wave functions
 |  Li  N   Li   N    |
 |   |       Li       |
 |   | Li  Li   Li    |
 |   |LiLi N      Li  |
 |   |         Li     |
 | Li|   N Li    N    |
 |   |      Li       Li
 |   | Li  N    Li    |
 |   |Li LLi  Li LiN  |
 |   |            Li  |
 |   |   N Li    N Li |
 |  Li      Li        |
 |N  .-Li--N----Li----.
 |  / Li Li   Li Li  /
 Li/      Li        /
 |/i       Li      /

[...]

Density initialized from wave functions
 |  Li  N   Li   N    |
 |   |       Li       |
 |   | Li   Li  Li    |
 |   |LiLi N      Li  |
 |   |         Li     |
 | Li|   N Li    N    |
 |   |      Li       Li
 |   | Li  N    Li    |
 |   |Li LLi  Li LiN  |
 |   |            Li  |
 |   |   N Li    N Li |
 |  Li      Li        |
 |N  .-Li--N----Li----.
 |  / Li Li   Li Li  /
 Li/      Li        /
 |/i       Li      /

[...]

Density initialized from wave functions
 |  Li  N   Li   N    |
 |   |       Li       |
 |   | Li   Li  Li    |
 |   |LiLi N      Li  |
 |   |         Li     |
 | Li|   N Li    N    |
 |   |      Li       Li
 |   | Li  N    Li N  |
 |   |Li LLi  Li Li   |
 |   |            Li  |
 |   |   N Li    N Li |
 |  Li      Li        |
 |N  .-Li--N----Li----.
 |  / Li Li   Li Li  /
 Li/      Li        /
 |/i       Li      /

[...]

Density initialized from wave functions
 |  Li  N   Li   N    |
 |   |       Li       |
 |   | Li   Li  Li    |
 |   |LiLi N     LLi  |
 |   |         Li     |
 | Li|   N Li    N    |
 |   |      Li       Li
 |   | Li  N    Li N  |
 |   |Li LLi  Li Li   |
 |   |            Li  |
 |   |   N Li    N Li |
 |  Li      Li        |
 |N  .-Li--N----Li----.
 |  / Li Li   Li Li  /
 Li/      Li        /
 |/i       Li      /

[...]

Density initialized from wave functions
 |  Li  N   Li   N    |
 |   |       Li       |
 |   | Li   Li  Li    |
 |   |LiLi N     LLi  |
 |   |         Li     |
 | Li|   N Li    N    |
 |   |      Li       Li
 |   | Li  N    Li N  |
 |   |Li LLi  Li Li   |
 |   |            Li  |
 |   |   N Li    N Li |
 |  Li      Li        |
 |N  .-Li--N----Li----.
 |  / Li Li   Li Li  /
 Li/      Li        /
 |/i       Li      /

[...]

Density initialized from wave functions
 |  Li  N   Li   N    |
 |   |       Li       |
 |   | Li   Li  Li    |
 |   |LiLi N     LLi  |
 |   |         Li     |
 | Li|   N Li    N    |
 |   |      Li       Li
 |   | Li  N    Li N  |
 |   |Li Li   Li Li   |
 |   |            Li  |
 |   |   N Li    N Li |
 |  Li      Li        |
 |N  .-Li--N----Li----.
 |  / Li Li   Li Li  /
 Li/      Li        /
 |/i       Li      /

[...]

Density initialized from wave functions
 |  Li  N   Li   N    |
 |   |       Li       |
 |   | Li   Li  Li    |
 |   |LiLi N     LLi  |
 |   |         Li     |
 | Li|   N Li    N    |
 |   |      Li       Li
 |   | Li  N    Li N  |
 |   |Li Li   Li Li   |
 |   |            Li  |
 |   |   N Li    N Li |
 |  Li      Li        |
 |N  .-Li--N----Li----.
 |  / Li Li   Li Li  /
 Li/      Li        /
 |/i       Li      /

[...]

Density initialized from wave functions
 |  Li  N   Li   N    |
 |   |       Li       |
 |   | Li   Li  Li    |
 |   |LiLi N     LLi  |
 |   |         Li     |
 | Li|   N Li    N    |
 |   |      Li       Li
 |   | Li  N    Li N  |
 |   |Li Li   Li LLi  |
 |   |   N Li    N Li |
 |  Li      Li        |
 |N  .-Li--N----Li----.
 |  / Li Li   Li Li  /
 Li/      Li        /
 |/i       Li      /

[...]

Density initialized from wave functions
 |  Li  N   Li   N    |
 |   |       Li       |
 |   | Li   Li  Li    |
 |   |LiLi N     LLi  |
 |   |        Li      |
 | Li|   N Li    N    |
 |   |      Li       Li
 |   | Li  N    Li N  |
 |   |Li Li   Li LLi  |
 |   |   N Li    N Li |
 |  Li      Li        |
 |N  .-Li--N----Li----.
 |  / Li Li   Li Li  /
 Li/      Li        /
 |/i       Li      /

[...]

Density initialized from wave functions
 |  Li  N   Li   N    |
 |   |       Li       |
 |   | Li   Li  Li    |
 |   |LiLi N     LiN  |
 |   |        Li  Li  |
 | Li|   N Li    N    |
 |   |      Li       Li
 |   | Li  N    Li N  |
 |   |Li Li   Li LLi  |
 |   |   N Li    N Li |
 |  Li      Li        |
 |N  .-Li--N----Li----.
 |  / Li Li   Li Li  /
 Li/      Li        /
 |/i       Li      /

[...]

Density initialized from wave functions
 |  Li  N   Li   N    Li
 |   |       Li       |
 |   |Lii   Li  Li    |
 |   |  Li N     LiN  |
 |   |        Li      |
 | Li|   N Li    N    |
 |   |      Li       Li
 |   | Li  N    Li N  |
 |   |Li Li   Li LLi  |
 |   |   N Li    N Li |
 |  Li      Li        |
 |N  .-Li--N----Li----.
 |  / Li Li   Li Li  /
 Li/      Li        /
 |/i       Li      /

[...]

Density initialized from wave functions
 |  Li  N   Li   N    Li
 |   |       Li       |
 |   |Lii    Li Li    |
 |   |  Li N     LiN  |
 |   |        Li      |
 | Li|   N Li    N    |
 |   |      Li       Li
 |   | Li  N    Li N  |
 |   |Li Li   Li LLi  |
 |   |   N Li    N Li |
 |  Li      Li        |
 |N  .-Li--N----Li----.
 |  / Li Li   Li Li  /
 Li/      Li        /
 |/i       Li      /

[...]

Density initialized from wave functions
 |  Li  N   Lii  N    Li
 |   |Lii    Li Li    |
 |   |  Li N     LiN  |
 |   |        Li      |
 | Li|   N Li    N    |
 |   |      Li       Li
 |   | Li  N    Li N  |
 |   |Li Li   Li LLi  |
 |   |   N Li    N Li |
 |  Li      Li        |
 |N  .-Li--N----Li----.
 |  / Li Li   Li Li  /
 Li/      Li        /
 |/i       Li      /

[...]

Density initialized from wave functions
 |  Li  N   Lii  N    Li
 |   |Lii    Li Li    |
 |   |  Li N     LiN  |
 |   |        Li      |
 | Li|   N Li    N    |
 |   |      Li       Li
 |   | Li  N    Li N  |
 |   |Li Li   Li LLi  |
 |   |   N Li    N Li |
 |  Li      Li        |
 |N  .-Li--N----Li----.
 |  / Li Li   Li Li  /
 Li/      Li        /
 |/i       Li      /

[...]

Density initialized from wave functions
 |  Li  N   Lii  N    Li
 |   |Lii    Li Li    |
 |   |  Li N     LiN  |
 |   |        Li      |
 | Li|   N Li    N    |
 |   |      Li  Li   Li
 |   | Li  N       N  |
 |   |Li Li   Li LLi  |
 |   |   N Li    N Li |
 |  Li      Li        |
 |N  .-Li--N----Li----.
 |  / Li Li   Li Li  /
 Li/      Li        /
 |/i       Li      /

[...]

System changes: positions

Initializing position-dependent things.

Density initialized from wave functions
 |  Li  N   Lii  N    Li
 |   |Lii    Li Li    |
 |   |  Li N     LiN  |
 |   |        Li      |
 | Li|   N Li    N    |
 |   |      Li  Li   Li
 |   | Li  N       N  |
 |   |Li Li   Li LLi  |
 |   |   N Li    N Li |
 |  Li      Li        |
 |N  .-Li--N----Li----.
 |  / Li Li   Li Li  /
 Li/      Li        /
 |/i       Li      /

Positions:
   0 Li     1.753389    5.061850    0.000000    ( 0.0000,  0.0000,  0.0000)
   1 Li     0.000000    2.024928    0.000000    ( 0.0000,  0.0000,  0.0000)
   2 Li     3.506756    2.024928    0.000000    ( 0.0000,  0.0000,  0.0000)
   3 Li     5.260124    5.061850    0.000000    ( 0.0000,  0.0000,  0.0000)
   4 Li     1.753389    3.037256    1.946139    ( 0.0000,  0.0000,  0.0000)
   5 Li     0.000000    0.000334    1.946139    ( 0.0000,  0.0000,  0.0000)
   6 Li     3.506756    0.000334    1.946139    ( 0.0000,  0.0000,  0.0000)
   7 Li     5.260124    3.037256    1.946139    ( 0.0000,  0.0000,  0.0000)
   8 Li     1.753367    1.012631    1.946139    ( 0.0000,  0.0000,  0.0000)
   9 Li     0.000000    4.049553    1.946139    ( 0.0000,  0.0000,  0.0000)
  10 Li     3.506735    4.049553    1.946139    ( 0.0000,  0.0000,  0.0000)
  11 Li     5.260103    1.012631    1.946139    ( 0.0000,  0.0000,  0.0000)
  12 Li     1.757852    5.087985    3.958879    ( 0.0000,  0.0000,  0.0000)
  13 Li    -0.019594    2.025632    3.919272    ( 0.0000,  0.0000,  0.0000)
  14 Li     3.498393    2.048719    3.945891    ( 0.0000,  0.0000,  0.0000)
  15 Li     5.224947    5.071190    3.969317    ( 0.0000,  0.0000,  0.0000)
  16 Li     1.728672    3.072000    6.025727    ( 0.0000,  0.0000,  0.0000)
  17 Li    -0.040711    0.057418    6.230638    ( 0.0000,  0.0000,  0.0000)
  18 Li     3.484237    0.052616    6.417240    ( 0.0000,  0.0000,  0.0000)
  19 Li     5.244180    3.027611    6.123226    ( 0.0000,  0.0000,  0.0000)
  20 Li     1.753204    1.008451    5.650669    ( 0.0000,  0.0000,  0.0000)
  21 Li    -0.033204    4.105604    5.676189    ( 0.0000,  0.0000,  0.0000)
  22 Li     3.490592    4.128964    5.744926    ( 0.0000,  0.0000,  0.0000)
  23 Li     5.204961    1.007431    5.648005    ( 0.0000,  0.0000,  0.0000)
  24 Li     1.552290    5.025774    7.959213    ( 0.0000,  0.0000,  0.0000)
  25 Li     0.143392    2.123605    7.843051    ( 0.0000,  0.0000,  0.0000)
  26 Li     3.363943    2.274681    7.917492    ( 0.0000,  0.0000,  0.0000)
  27 Li     5.343271    4.782002    7.977396    ( 0.0000,  0.0000,  0.0000)
  28 Li     1.728351    2.958618    9.660402    ( 0.0000,  0.0000,  0.0000)
  29 Li    -0.013229   -0.040563    9.839877    ( 0.0000,  0.0000,  0.0000)
  30 Li     3.354890   -0.129742    9.491145    ( 0.0000,  0.0000,  0.0000)
  31 Li     5.203524    3.054458    9.856374    ( 0.0000,  0.0000,  0.0000)
  32 Li     1.774973    0.947779   10.583006    ( 0.0000,  0.0000,  0.0000)
  33 Li     0.013428    3.975844   10.594760    ( 0.0000,  0.0000,  0.0000)
  34 Li     3.404686    4.051311   10.652577    ( 0.0000,  0.0000,  0.0000)
  35 Li     5.254160    1.007449    9.036773    ( 0.0000,  0.0000,  0.0000)
  36 N      1.753389    5.061910    1.929076    ( 0.0000,  0.0000,  0.0000)
  37 N      0.000000    2.024989    1.929076    ( 0.0000,  0.0000,  0.0000)
  38 N      3.506756    2.024989    1.929076    ( 0.0000,  0.0000,  0.0000)
  39 N      5.260124    5.061910    1.929076    ( 0.0000,  0.0000,  0.0000)
  40 N      1.717765    5.096772    5.948765    ( 0.0000,  0.0000,  0.0000)
  41 N     -0.017585    2.057182    5.848356    ( 0.0000,  0.0000,  0.0000)
  42 N      3.477843    2.070032    5.916897    ( 0.0000,  0.0000,  0.0000)
  43 N      5.239468    5.084642    5.976149    ( 0.0000,  0.0000,  0.0000)
  44 N      1.688685    4.959086    9.922939    ( 0.0000,  0.0000,  0.0000)
  45 N     -0.088537    1.972105    9.770380    ( 0.0000,  0.0000,  0.0000)
  46 N      3.535597    1.902683    9.866887    ( 0.0000,  0.0000,  0.0000)
  47 N      5.175246    5.130706    9.920187    ( 0.0000,  0.0000,  0.0000)
  48 Li     4.854908    0.756333   11.147631    ( 0.0000,  0.0000,  0.0000)

Unit cell:
           periodic     x           y           z      points  spacing
  1. axis:    yes    7.013470    0.000000    0.000000    40     0.1753
  2. axis:    yes    0.000000    6.073843    0.000000    32     0.1898
  3. axis:    yes    0.000000    0.000000   29.936001   160     0.1871

  Lengths:   7.013470   6.073843  29.936001
  Angles:   90.000000  90.000000  90.000000

Effective grid spacing dv^(1/3) = 0.1840

                     log10-error:    total        iterations:
           time      wfs    density  energy       fermi  poisson
iter:   1  15:35:32  -3.45         -155.641206    2
iter:   2  15:35:43  -4.60  -2.95  -155.640904    2
iter:   3  15:35:55  -5.39  -2.97  -155.641316    2
iter:   4  15:36:06  -5.09  -2.99  -155.640710    2
iter:   5  15:36:17  -6.23  -3.32  -155.640666    2
iter:   6  15:36:29  -5.72  -3.37  -155.640581    2
iter:   7  15:36:40  -6.09  -3.65  -155.640603    2
iter:   8  15:36:52  -7.45  -3.61  -155.640535    2
iter:   9  15:37:03  -7.49  -3.64  -155.640590    2
iter:  10  15:37:15  -6.37  -3.70  -155.640534    2
iter:  11  15:37:26  -7.86  -4.02  -155.640539    2

Converged after 11 iterations.

Dipole moment: (7.139068, -2.474536, 5.188840) |e|*Ang

Energy contributions relative to reference atoms: (reference = -25283.807400)

Kinetic:       +162.577671
Potential:     -119.035732
External:        +0.000000
XC:            -198.132050
Entropy (-ST):   -0.021962
Local:           -1.039447
Free energy:   -155.651520
Extrapolated:  -155.640539

Non-local vdW-DF-cx correlation energy: 15.145533
Semilocal GGA_X_LV_RPW86+LDA_C_PW energy: -1085.906568
(Not including atomic contributions)
Fermi level: -0.98035

Showing only first 2 kpts
 Kpt  Band  Eigenvalues  Occupancy
  0    46     -1.39482    0.13333
  0    47     -0.81910    0.00061
  0    48     -0.77510    0.00014
  0    49     -0.42742    0.00000

  1    46     -1.47905    0.13333
  1    47     -1.16620    0.13306
  1    48     -0.91059    0.01187
  1    49     -0.39163    0.00000

No gap

Forces in eV/Ang:
  0 Li    0.00071   -0.00068   -0.12793
  1 Li    0.00035   -0.00012   -0.13230
  2 Li    0.00048   -0.00056   -0.13136
  3 Li    0.00015   -0.00034   -0.12757
  4 Li   -0.00947    0.00937    0.05293
  5 Li   -0.00561   -0.00621    0.05121
  6 Li   -0.00303    0.01054    0.02711
  7 Li    0.00062    0.00768    0.03718
  8 Li   -0.00270    0.00550    0.00546
  9 Li    0.00023    0.00704    0.03925
 10 Li   -0.00762    0.00226    0.00331
 11 Li   -0.00476   -0.00216    0.00006
 12 Li   -0.00891   -0.01430    0.00849
 13 Li    0.00717    0.01312   -0.02382
 14 Li   -0.00283    0.01683    0.00805
 15 Li    0.01715   -0.01251    0.00973
 16 Li   -0.01055   -0.00678   -0.04084
 17 Li    0.01398    0.00728   -0.00517
 18 Li   -0.00380   -0.00457   -0.01913
 19 Li    0.00040   -0.00091   -0.02740
 20 Li   -0.00884    0.01254    0.00784
 21 Li   -0.00032   -0.01710    0.00215
 22 Li    0.00222    0.00230    0.00074
 23 Li    0.02069    0.00059    0.02606
 24 Li    0.01524   -0.00756   -0.00005
 25 Li   -0.00620    0.01033   -0.01279
 26 Li   -0.02160   -0.01010    0.00819
 27 Li    0.01401   -0.02315   -0.00910
 28 Li    0.00425   -0.00016    0.01183
 29 Li   -0.01621   -0.00483   -0.02182
 30 Li    0.00406   -0.00001   -0.01632
 31 Li   -0.00175    0.01493   -0.01170
 32 Li   -0.00070   -0.00704    0.01859
 33 Li   -0.00141   -0.01189    0.00560
 34 Li   -0.01544    0.00371    0.01831
 35 Li   -0.00031    0.00818   -0.02870
 36 N     0.01964    0.03445    0.07485
 37 N    -0.00968    0.00579   -0.07430
 38 N     0.00441    0.01531    0.04281
 39 N    -0.02613    0.02605    0.12251
 40 N     0.01550   -0.03682   -0.01152
 41 N     0.00189    0.03034    0.02490
 42 N     0.00163    0.02139   -0.00306
 43 N    -0.00562   -0.02563   -0.00159
 44 N    -0.00388    0.00494    0.03220
 45 N    -0.00410    0.01284    0.01004
 46 N     0.01387   -0.00986    0.00115
 47 N     0.01881    0.01487    0.01177
 48 Li    0.01121    0.00862   -0.00833

Date: Mon Sep  6 15:37:34 2021