User:   jngwng01@n716004
Date:   Mon Sep  6 10:10:08 2021
Arch:   x86_64
Pid:    23128
Python: 3.8.5
gpaw:   /uls/7/gpaw-20.1.0/lib/python3.8/site-packages/gpaw-20.1.0-py3.8-linux-x86_64.egg/gpaw
_gpaw:  /uls/7/gpaw-20.1.0/lib/python3.8/site-packages/gpaw-20.1.0-py3.8-linux-x86_64.egg/
        _gpaw.cpython-38-x86_64-linux-gnu.so
ase:    /uls/7/gpaw-20.1.0/lib/python3.8/site-packages/ase-3.20.1-py3.8.egg/ase (version 3.20.1)
numpy:  /uls/7/gpaw-20.1.0/lib/python3.8/site-packages/numpy (version 1.19.2)
scipy:  /uls/7/gpaw-20.1.0/lib/python3.8/site-packages/scipy-1.5.2-py3.8-linux-x86_64.egg/scipy (version 1.5.2)
units:  Angstrom and eV
cores: 32
OMP_NUM_THREADS: 1

Input parameters:
  convergence: {eigenstates: 1e-08}
  kpts: [5 6 1]
  mode: {ecut: 500.0,
         gammacentered: False,
         name: pw}
  occupations: {name: fermi-dirac,
                width: 0.03}
  random: True
  xc: {backend: libvdwxc,
       libvdwxc_name: vdW-DF-cx,
       name: vdW-DF-cx,
       semilocal_xc: GGA_X_LV_RPW86+LDA_C_PW,
       setup_name: PBE,
       vdwcoef: 1.0}

System changes: positions, numbers, cell, pbc, initial_charges, initial_magmoms

Initialize ...

Li-setup:
  name: Lithium
  id: 830b4218f175192f93f959cfc0aad614
  Z: 3
  valence: 1
  core: 2
  charge: 0.0
  file: /uls/7/gpaw-20.1.0/setups/gpaw-setups-0.9.20000/Li.PBE.gz
  compensation charges: gauss, rc=0.33, lmax=2
  cutoffs: 1.91(filt), 2.55(core),
  valence states:
                energy  radius
    2s(1.00)    -2.874   1.058
    2p(0.00)    -1.090   1.058
    *s          24.337   1.058

  Using partial waves for Li as LCAO basis

N-setup:
  name: Nitrogen
  id: f7500608b86eaa90eef8b1d9a670dc53
  Z: 7
  valence: 5
  core: 2
  charge: 0.0
  file: /uls/7/gpaw-20.1.0/setups/gpaw-setups-0.9.20000/N.PBE.gz
  compensation charges: gauss, rc=0.18, lmax=2
  cutoffs: 1.11(filt), 0.96(core),
  valence states:
                energy  radius
    2s(2.00)   -18.583   0.603
    2p(3.00)    -7.089   0.529
    *s           8.629   0.603
    *p          20.123   0.529
    *d           0.000   0.577

  Using partial waves for N as LCAO basis

Reference energy: -25283.807400

Spin-paired calculation

Occupation numbers:
  Fermi-Dirac: width=0.0300 eV

Convergence criteria:
  Maximum total energy change: 0.0005 eV / electron
  Maximum integral of absolute density change: 0.0001 electrons
  Maximum integral of absolute eigenstate change: 1e-08 eV^2
  Maximum number of iterations: 333

Symmetries present (total): 1

  ( 1  0  0)
  ( 0  1  0)
  ( 0  0  1)

30 k-points: 5 x 6 x 1 Monkhorst-Pack grid
15 k-points in the irreducible part of the Brillouin zone
       k-points in crystal coordinates                weights
   0:     0.00000000    0.08333333    0.00000000          2/30
   1:     0.00000000    0.25000000    0.00000000          2/30
   2:     0.00000000    0.41666667    0.00000000          2/30
   3:     0.20000000   -0.41666667    0.00000000          2/30
   4:     0.20000000   -0.25000000    0.00000000          2/30
   5:     0.20000000   -0.08333333    0.00000000          2/30
   6:     0.20000000    0.08333333    0.00000000          2/30
   7:     0.20000000    0.25000000    0.00000000          2/30
   8:     0.20000000    0.41666667    0.00000000          2/30
   9:     0.40000000   -0.41666667    0.00000000          2/30
          ...
  14:     0.40000000    0.41666667    0.00000000          2/30

Wave functions: Plane wave expansion
  Cutoff energy: 500.000 eV
  Number of coefficients (min, max): 32335, 32478
  Pulay-stress correction: 0.000000 eV/Ang^3 (de/decut=0.000000)
  Using FFTW library
  ScaLapack parameters: grid=1x1, blocksize=None
  Wavefunction extrapolation:
    Improved wavefunction reuse through dual PAW basis

Eigensolver
   Davidson(niter=2, smin=None, normalize=True)

Densities:
  Coarse grid: 40*32*160 grid
  Fine grid: 80*64*320 grid
  Total Charge: 0.000000

Density mixing:
  Method: separate
  Backend: pulay
  Linear mixing parameter: 0.05
  Mixing with 5 old densities
  Damping of long wave oscillations: 50

Hamiltonian:
  XC and Coulomb potentials evaluated on a 80*64*320 grid
  Using the vdW-DF-cx Exchange-Correlation functional

XC parameters: vdW-DF-cx with libvdwxc
  Semilocal: GGA_X_LV_RPW86+LDA_C_PW with 2 nearest neighbor stencil
  Local blocksize: 3 x 64 x 320
  PAW datasets: PBE

Total number of cores used: 32
Parallelization over k-points: 8
Domain decomposition: 1 x 1 x 4
                      2 x 2 x 8 (xc only)

Number of atoms: 49
Number of atomic orbitals: 196
Number of bands in calculation: 63
Number of valence electrons: 97
Bands to converge: occupied

... initialized

Initializing position-dependent things.

Density initialized from atomic densities
Creating initial wave functions:
  63 bands from LCAO basis set

 |   |   N Li         |
 |   |      Li   N   Li
 |   | Li  N    Li    |
 |N  |LiLi     Li Li  |
 |   |    Li          |
 |Li |   N Li    N    |
 |  Li      Li        |
 |N  | Li  N    Li    |
 |   |Li Li   Li Li   |
 Li  |    Li          |
 |Li |   N Li    N    |
 |  Li      Li        |
 |N  .-Li--N----Li----.
 |  / Li Li   Li Li  /
 Li/      Li        /
 |/i       Li      /

Positions:
   0 Li     1.753389    5.061850    0.000000    ( 0.0000,  0.0000,  0.0000)
   1 Li     0.000000    2.024928    0.000000    ( 0.0000,  0.0000,  0.0000)
   2 Li     3.506756    2.024928    0.000000    ( 0.0000,  0.0000,  0.0000)
   3 Li     5.260124    5.061850    0.000000    ( 0.0000,  0.0000,  0.0000)
   4 Li     1.753389    3.037256    1.946139    ( 0.0000,  0.0000,  0.0000)
   5 Li     0.000000    0.000334    1.946139    ( 0.0000,  0.0000,  0.0000)
   6 Li     3.506756    0.000334    1.946139    ( 0.0000,  0.0000,  0.0000)
   7 Li     5.260124    3.037256    1.946139    ( 0.0000,  0.0000,  0.0000)
   8 Li     1.753367    1.012631    1.946139    ( 0.0000,  0.0000,  0.0000)
   9 Li     0.000000    4.049553    1.946139    ( 0.0000,  0.0000,  0.0000)
  10 Li     3.506735    4.049553    1.946139    ( 0.0000,  0.0000,  0.0000)
  11 Li     5.260103    1.012631    1.946139    ( 0.0000,  0.0000,  0.0000)
  12 Li     1.753389    5.061850    3.920419    ( 0.0000,  0.0000,  0.0000)
  13 Li     0.000000    2.024928    3.920419    ( 0.0000,  0.0000,  0.0000)
  14 Li     3.506756    2.024928    3.920419    ( 0.0000,  0.0000,  0.0000)
  15 Li     5.260124    5.061850    3.920419    ( 0.0000,  0.0000,  0.0000)
  16 Li     1.754854    3.074098    5.928872    ( 0.0000,  0.0000,  0.0000)
  17 Li     0.000096    0.046804    5.795323    ( 0.0000,  0.0000,  0.0000)
  18 Li     3.506909    0.030024    5.918665    ( 0.0000,  0.0000,  0.0000)
  19 Li     5.258775    3.072944    5.935461    ( 0.0000,  0.0000,  0.0000)
  20 Li     1.755596    1.047076    5.940909    ( 0.0000,  0.0000,  0.0000)
  21 Li     0.000118    4.073065    5.795055    ( 0.0000,  0.0000,  0.0000)
  22 Li     3.506900    4.095902    5.897982    ( 0.0000,  0.0000,  0.0000)
  23 Li     5.258082    1.048117    5.948094    ( 0.0000,  0.0000,  0.0000)
  24 Li     1.567654    5.090528    7.889155    ( 0.0000,  0.0000,  0.0000)
  25 Li     0.010600    2.062173    7.853956    ( 0.0000,  0.0000,  0.0000)
  26 Li     3.495292    2.107752    7.906076    ( 0.0000,  0.0000,  0.0000)
  27 Li     5.445877    5.089624    7.871004    ( 0.0000,  0.0000,  0.0000)
  28 Li     1.720944    3.102284    9.805643    ( 0.0000,  0.0000,  0.0000)
  29 Li    -0.004065    0.078970   10.369092    ( 0.0000,  0.0000,  0.0000)
  30 Li     3.508740    0.045166    9.798798    ( 0.0000,  0.0000,  0.0000)
  31 Li     5.295917    3.102408    9.776079    ( 0.0000,  0.0000,  0.0000)
  32 Li     1.706465    1.041178    9.769145    ( 0.0000,  0.0000,  0.0000)
  33 Li    -0.003036    4.086244   10.271846    ( 0.0000,  0.0000,  0.0000)
  34 Li     3.509698    4.110878    9.952280    ( 0.0000,  0.0000,  0.0000)
  35 Li     5.311003    1.040723    9.737884    ( 0.0000,  0.0000,  0.0000)
  36 N      1.753389    5.061910    1.929076    ( 0.0000,  0.0000,  0.0000)
  37 N      0.000000    2.024989    1.929076    ( 0.0000,  0.0000,  0.0000)
  38 N      3.506756    2.024989    1.929076    ( 0.0000,  0.0000,  0.0000)
  39 N      5.260124    5.061910    1.929076    ( 0.0000,  0.0000,  0.0000)
  40 N      1.745126    5.098227    5.857641    ( 0.0000,  0.0000,  0.0000)
  41 N      0.000715    2.061095    5.858802    ( 0.0000,  0.0000,  0.0000)
  42 N      3.506062    2.064285    5.915569    ( 0.0000,  0.0000,  0.0000)
  43 N      5.268253    5.098244    5.853143    ( 0.0000,  0.0000,  0.0000)
  44 N      1.735404    5.114596    9.842556    ( 0.0000,  0.0000,  0.0000)
  45 N      0.001984    2.077728    9.763884    ( 0.0000,  0.0000,  0.0000)
  46 N      3.508263    2.075317    9.868146    ( 0.0000,  0.0000,  0.0000)
  47 N      5.281981    5.114345    9.808175    ( 0.0000,  0.0000,  0.0000)
  48 Li     3.520849    1.978331   11.751465    ( 0.0000,  0.0000,  0.0000)

Unit cell:
           periodic     x           y           z      points  spacing
  1. axis:    yes    7.013470    0.000000    0.000000    40     0.1753
  2. axis:    yes    0.000000    6.073843    0.000000    32     0.1898
  3. axis:    yes    0.000000    0.000000   29.936001   160     0.1871

  Lengths:   7.013470   6.073843  29.936001
  Angles:   90.000000  90.000000  90.000000

Effective grid spacing dv^(1/3) = 0.1840

                     log10-error:    total        iterations:
           time      wfs    density  energy       fermi  poisson
iter:   1  10:10:38                -187.072130    3
iter:   2  10:10:49  -0.99  -0.50  -176.900111    31
iter:   3  10:11:00  -0.39  -0.56  -179.697569    38
iter:   4  10:11:11  -1.95  -0.60  -166.452091    32
iter:   5  10:11:22  -2.85  -0.67  -165.100971    4
iter:   6  10:11:34  -2.28  -0.69  -158.269067    33
iter:   7  10:11:45  -1.74  -0.84  -156.850788    31
iter:   8  10:11:56  -1.69  -0.91  -155.950093    4
iter:   9  10:12:07  -2.63  -0.97  -155.169992    3
iter:  10  10:12:18  -1.70  -1.10  -154.892319    34
iter:  11  10:12:30  -2.68  -1.67  -154.865298    4
iter:  12  10:12:41  -3.08  -1.68  -154.842504    2
iter:  13  10:12:52  -2.25  -1.69  -154.825499    28
iter:  14  10:13:03  -3.44  -1.74  -154.825510    3
iter:  15  10:13:15  -3.05  -1.75  -154.795211    5
iter:  16  10:13:26  -4.03  -1.90  -154.786654    3
iter:  17  10:13:37  -3.88  -1.91  -154.768827    4
iter:  18  10:13:48  -2.63  -1.94  -154.812545    4
iter:  19  10:14:00  -3.07  -1.90  -154.791695    5
iter:  20  10:14:11  -4.37  -2.05  -154.776088    4
iter:  21  10:14:22  -4.93  -2.29  -154.774272    3
iter:  22  10:14:33  -4.24  -2.30  -154.772127    3
iter:  23  10:14:44  -4.70  -2.35  -154.775386    3
iter:  24  10:14:56  -4.74  -2.59  -154.774709    3
iter:  25  10:15:07  -4.87  -2.96  -154.773474    3
iter:  26  10:15:18  -5.90  -3.11  -154.773712    3
iter:  27  10:15:29  -5.23  -3.21  -154.772855    2
iter:  28  10:15:41  -5.65  -2.95  -154.773804    3
iter:  29  10:15:52  -6.44  -3.30  -154.773568    2
iter:  30  10:16:03  -6.76  -3.46  -154.773554    2
iter:  31  10:16:14  -7.06  -3.54  -154.773590    2
iter:  32  10:16:25  -6.20  -3.60  -154.773491    2
iter:  33  10:16:37  -7.01  -3.69  -154.773566    2
[...]
 43 N     0.07438    0.00612    0.04756
 44 N     0.01186    0.02276    0.08184
 45 N    -0.00487    0.01210    0.01422
 46 N     0.00485   -0.00762    0.05563
 47 N    -0.02283    0.02390    0.13420
 48 Li    0.01012   -0.04876   -0.15105

System changes: positions

[...]

Density initialized from wave functions
 |   |   N Li         |
 |   |      Li   N   Li
 |   | Li  N    Li    |
 |N  |LiLi     Li Li  |
 |   |    Li          |
 |Li |   N Li    N    |
 |  Li      Li        |
 |N  | Li  N    Li    |
 |   |Li Li   Li Li   |
 Li  |    Li          |
 |   |   N Li    N Li |
 |  Li      Li        |
 |N  .-Li--N----Li----.
 |  / Li Li   Li Li  /
 Li/      Li        /
 |/i       Li      /

[...]

Density initialized from wave functions
 |   |   N Li    N    |
 |   |      Li       Li
 |   | Li  N    Li    |
 |N  |LiLi     Li Li  |
 |   |    Li          |
 |Li |   N Li    N    |
 |   |      Li       Li
 |N  | Li  N    Li    |
 |   |Li Li   Li Li   |
 |   |    Li      Li  |
 |   |   N Li    N Li |
 |  Li      Li        |
 |N  .-Li--N----Li----.
 |  / Li Li   Li Li  /
 Li/      Li        /
 |/i       Li      /

[...]

Density initialized from wave functions
 |   |   N Li    N    |
 |   |      Li       Li
 |   | Li  N    Li    |
 |N  |LiLi     Li Li  |
 |   |    Li          |
 |Li |   N Li    N    |
 |   |      Li       Li
 |N  | Li  N    Li    |
 |   |Li Li   Li Li   |
 |   |    Li      Li  |
 |   |   N Li    N Li |
 |  Li      Li        |
 |N  .-Li--N----Li----.
 |  / Li Li   Li Li  /
 Li/      Li        /
 |/i       Li      /

[...]

Density initialized from wave functions
 |   |   N Li    N    |
 |   |      Li       Li
 |   | Li  N    Li    |
 |N  |LiLi     LiLLi  |
 |   |    Li          |
 |Li |   N Li    N    |
 |  Li      Li        |
 |N  | Li  N    Li    |
 |   |Li Li   Li Li   |
 |   |    Li      Li  |
 |   |   N Li    N Li |
 |  Li      Li        |
 |N  .-Li--N----Li----.
 |  / Li Li   Li Li  /
 Li/      Li        /
 |/i       Li      /

[...]

Density initialized from wave functions
 |   |   N Li    N    |
 |   |      Li       Li
 |   | Li  N    Li    |
 |N  |LiLi     LiLLi  |
 |   |    Li          |
 |Li |   N Li    N    |
 |  Li      Li        |
 |N  | Li  N    Li    |
 |   |Li Li   Li Li   |
 Li  |    Li          |
 |   |   N Li    N Li |
 |  Li      Li        |
 |N  .-Li--N----Li----.
 |  / Li Li   Li Li  /
 Li/      Li        /
 |/i       Li      /

[...]

Density initialized from wave functions
 |   |   N Li    N    |
 |   |      Li       Li
 |   | Li  N    Li    |
 |N  |LiLi     LiLLi  |
 |   |    Li          |
 |Li |   N Li    N    |
 |  Li      Li        |
 |N  | Li  N    Li    |
 |   |Li Li   Li Li   |
 Li  |    Li          |
 |   |   N Li    N Li |
 |  Li      Li        |
 |N  .-Li--N----Li----.
 |  / Li Li   Li Li  /
 Li/      Li        /
 |/i       Li      /

[...]

Density initialized from wave functions
 |   |   N Li    N    |
 |   |      Li       Li
 |   | Li       Li    |
 |N  |LiLi N   LiLLi  |
 |   |    Li          |
 |Li |   N Li    N    |
 |  Li      Li        |
 |N  | Li  N    Li    |
 |   |Li Li   Li Li   |
 Li  |    Li          |
 |   |   N Li    N Li |
 |  Li      Li        |
 |N  .-Li--N----Li----.
 |  / Li Li   Li Li  /
 Li/      Li        /
 |/i       Li      /

[...]

Density initialized from wave functions
 |   |   N Li    N    |
 |   |      Li       Li
 |   | Li       Li    |
 |N  |LiLi N   LiLLi  |
 |   |    Li          |
 |Li |   N Li    N    |
 |  Li      Li        |
 |N  | Li  N    Li    |
 |   |Li Li   Li Li   |
 Li  |    Li          |
 |   |   N Li    N Li |
 |  Li      Li        |
 |N  .-Li--N----Li----.
 |  / Li Li   Li Li  /
 Li/      Li        /
 |/i       Li      /

[...]

Density initialized from wave functions
 |   |   N Li    N    |
 |   |      Li       Li
 |   | Li       Li    |
 |N  |LiLi N   LiLLi  |
 |   |    Li          |
 |Li |   N Li    N    |
 |   |      Li       Li
 |N  | Li  N    Li    |
 |   |Li Li   Li Li   |
 |   |    Li      Li  |
 |   |   N Li    N Li |
 |  Li      Li        |
 |N  .-Li--N----Li----.
 |  / Li Li   Li Li  /
 Li/      Li        /
 |/i       Li      /

[...]

Density initialized from wave functions
 |   |   N Li    N    |
 |   |      Li       Li
 |   | Li  N    Li    |
 |   |LiLi     LiLLi  |
 |   |    Li          |
 |Li |   N Li    N    |
 |   |      Li       Li
 |N  | Li  N    Li    |
 |   |Li Li   Li Li   |
 |   |    Li      Li  |
 |   |   N Li    N Li |
 |  Li      Li        |
 |N  .-Li--N----Li----.
 |  / Li Li   Li Li  /
 Li/      Li        /
 |/i       Li      /

[...]

Density initialized from wave functions
 |   |   N Li    N    |
 |   |      Li       Li
 |   | Li  N    Li    |
 |   |LiLi     LiLLi  |
 |   |    Li          |
 |Li |   N Li    N    |
 |   |      Li       Li
 |N  | Li  N    Li    |
 |   |Li Li   Li Li   |
 |   |    Li      Li  |
 |   |   N Li    N Li |
 |  Li      Li        |
 |N  .-Li--N----Li----.
 |  / Li Li   Li Li  /
 Li/      Li        /
 |/i       Li      /

[...]

Density initialized from wave functions
 |   |   N Li    N   Li
 |   |      Li        |
 |   | Li  N    Li    |
 |   |LiLi     LiLLi  |
 |   |    Li          |
 |Li |   N Li    N    |
 |   |      Li       Li
 |N  | Li  N    Li    |
 |   |Li LLi  Li Li   |
 |   |            Li  |
 |   |   N Li    N Li |
 |  Li      Li        |
 |N  .-Li--N----Li----.
 |  / Li Li   Li Li  /
 Li/      Li        /
 |/i       Li      /

[...]

Density initialized from wave functions
 |   |   N Lii   N   Li
 |   | Li  N    Li    |
 |   |LiLi     LiLLi  |
 |   |    Li          |
 |Li |   N Li    N    |
 |   |      Li       Li
 |N  | Li  N    Li    |
 |   |Li LLi  Li Li   |
 |   |            Li  |
 |   |   N Li    N Li |
 |  Li      Li        |
 |N  .-Li--N----Li----.
 |  / Li Li   Li Li  /
 Li/      Li        /
 |/i       Li      /

[...]

Density initialized from wave functions
 |   |   N Lii   N   Li
 |   | Li  N    Li    |
 |   |LiLi     LiLLi  |
 |   |    Li          |
 |Li |   N Li    N    |
 |   |      Li       Li
 |N  | Li  N    Li    |
 |   |Li LLi  Li Li   |
 |   |            Li  |
 |   |   N Li    N Li |
 |  Li      Li        |
 |N  .-Li--N----Li----.
 |  / Li Li   Li Li  /
 Li/      Li        /
 |/i       Li      /

[...]

Density initialized from wave functions
 |   |   N Lii   N   Li
 |   | Li  N    Li    |
 |   |LiLi     LiLLi  |
 |   |    Li          |
 |Li |   N Li    N    |
 |   |      Li       Li
 |N  | Li  N    Li    |
 |   |Li LLi  Li Li   |
 |   |            Li  |
 |Li |   N Li    N    |
 |  Li      Li        |
 |N  .-Li--N----Li----.
 |  / Li Li   Li Li  /
 Li/      Li        /
 |/i       Li      /

[...]

Density initialized from wave functions
 |   |   N Lii   N   Li
 |   | Li  N    Li    |
 |   |LiLi     LiLLi  |
 |   |    Li          |
 |Li |   N Li    N    |
 |   |      Li       Li
 |   | Li  N    Li N  |
 |   |Li LLi  Li Li   |
 |   |            Li  |
 |Li |   N Li    N    |
 |  Li      Li        |
 |N  .-Li--N----Li----.
 |  / Li Li   Li Li  /
 Li/      Li        /
 |/i       Li      /

[...]

Density initialized from wave functions
 |   |   N Lii   N   Li
 |   | Li  N    Li    |
 |   |LiLi     LiLLi  |
 |   |    Li          |
 |Li |   N Li    N    |
 |   |      Li       Li
 |   | Li  N    Li N  |
 |   |Li LLi  Li Li   |
 |   |            Li  |
 |Li |   N Li    N    |
 |  Li      Li        |
 |N  .-Li--N----Li----.
 |  / Li Li   Li Li  /
 Li/      Li        /
 |/i       Li      /

[...]

Density initialized from wave functions
 |   |   N Lii   N   Li
 |   | Li  N    Li    |
 |   |LiLi     LiLLi  |
 |   |   Li           |
 |Li |   N Li    N    |
 |  Li      Li        |
 |   | Li  N    Li N  |
 |   |Li LLi  Li Li   |
 Li  |                |
 |Li |   N Li    N    |
 |  Li      Li        |
 |N  .-Li--N----Li----.
 |  / Li Li   Li Li  /
 Li/      Li        /
 |/i       Li      /

[...]

Density initialized from wave functions
 |   |   N Lii   N   Li
 |   | Li  N    Li    |
 |   |LiLi     Li Li  |
 |   |   Li           |
 |   |   N Li    N Li |
 |  Li      Li        |
 |   | Li  N    Li N  |
 |   |Li LLi  Li Li   |
 Li  |                |
 |Li |   N Li    N    |
 |  Li      Li        |
 |N  .-Li--N----Li----.
 |  / Li Li   Li Li  /
 Li/      Li        /
 |/i       Li      /

[...]

Density initialized from wave functions
 |   |   N  Lii  N   Li
 |   |     Li         |
 |   | Li  N    Li    |
 |   |LiLi     Li Li  |
 |   |   N Li    N Li |
 |  Li      Li        |
 |   | Li  N    Li N  |
 |   |Li LLi  Li Li   |
 Li  |                |
 |Li |   N Li    N    |
 |  Li      Li        |
 |N  .-Li--N----Li----.
 |  / Li Li   Li Li  /
 Li/      Li        /
 |/i       Li      /

[...]

Density initialized from wave functions
 |   |   N  Lii  N   Li
 |   |     Li         |
 |   | Li  N    Li    |
 |   |LiLi     Li Li  |
 |   |   N Li    N Li |
 |  Li      Li        |
 |   | Li  N    Li N  |
 |   |Li LLi  Li Li   |
 Li  |                |
 |Li |   N Li    N    |
 |  Li      Li        |
 |N  .-Li--N----Li----.
 |  / Li Li   Li Li  /
 Li/      Li        /
 |/i       Li      /

[...]

Converged after 17 iterations.

Dipole moment: (0.445036, -2.897195, 5.398261) |e|*Ang

Energy contributions relative to reference atoms: (reference = -25283.807400)

Kinetic:       +167.888602
Potential:     -122.812674
External:        +0.000000
XC:            -199.102100
Entropy (-ST):   -0.020642
Local:           -1.022436
Free energy:   -155.069250
Extrapolated:  -155.058929

Non-local vdW-DF-cx correlation energy: 15.230567
Semilocal GGA_X_LV_RPW86+LDA_C_PW energy: -1086.526142
(Not including atomic contributions)
Fermi level: -0.85140

Showing only first 2 kpts
 Kpt  Band  Eigenvalues  Occupancy
  0    46     -1.37856    0.13333
  0    47     -0.77521    0.00975
  0    48     -0.63184    0.00009
  0    49     -0.26683    0.00000

  1    46     -1.40453    0.13333
  1    47     -1.07128    0.13325
  1    48     -0.76351    0.00676
  1    49     -0.24369    0.00000

No gap

Forces in eV/Ang:
  0 Li    0.00091   -0.00045   -0.11096
  1 Li   -0.00006   -0.00014   -0.12294
  2 Li    0.00007    0.00003   -0.11720
  3 Li   -0.00089   -0.00045   -0.10971
  4 Li    0.00474    0.01525    0.03959
  5 Li   -0.00204   -0.00929    0.03361
  6 Li    0.00146   -0.01086    0.04286
  7 Li   -0.00501    0.01722    0.04349
  8 Li    0.00189   -0.00598    0.02053
  9 Li   -0.00188    0.01090    0.05207
 10 Li    0.00168    0.00719    0.06572
 11 Li   -0.00173   -0.00797    0.02426
 12 Li    0.05849    0.04390   -0.08177
 13 Li   -0.01570    0.02618   -0.10090
 14 Li    0.01658    0.01338   -0.10286
 15 Li   -0.05665    0.04125   -0.12642
 16 Li   -0.02352   -0.00646    0.14030
 17 Li   -0.00826    0.11574   -0.03792
 18 Li    0.00605   -0.12373    0.10661
 19 Li    0.02348   -0.00320    0.09656
 20 Li   -0.02308   -0.03739    0.11694
 21 Li   -0.01001   -0.13983   -0.05593
 22 Li    0.00701    0.10880    0.11879
 23 Li    0.02207   -0.03806    0.07518
 24 Li    0.06898    0.03460    0.01859
 25 Li    0.02737   -0.01511   -0.24656
 26 Li   -0.01974    0.02557    0.33717
 27 Li   -0.07316    0.02597    0.04727
 28 Li   -0.03904    0.01686    0.05224
 29 Li   -0.00640   -0.12685   -0.13133
 30 Li    0.00063   -0.19347   -0.12061
 31 Li    0.02609   -0.01045    0.06822
 32 Li   -0.00177    0.00193    0.11967
 33 Li    0.00576    0.05352   -0.06170
 34 Li    0.00421    0.09492   -0.00606
 35 Li    0.01532    0.02911    0.10623
 36 N    -0.00210    0.02910    0.10653
 37 N     0.00323    0.00475   -0.12924
 38 N    -0.00312    0.00341    0.05552
 39 N     0.00116    0.02938    0.10765
 40 N     0.11539    0.00957    0.01399
 41 N     0.00415    0.02981   -0.12477
 42 N     0.00250    0.00220   -0.46972
 43 N    -0.11607    0.00752    0.12357
 44 N     0.05724    0.08685    0.11319
 45 N    -0.00129    0.00820    0.30574
 46 N     0.01309    0.00807   -0.13669
 47 N    -0.07486    0.10405    0.08205
 48 Li   -0.00295   -0.21167   -0.22963

System changes: positions

Initializing position-dependent things.

Density initialized from wave functions
 |   |   N  Lii  N   Li
 |   |     Li         |
 |   | Li  N    Li    |
 |   |LiLi     Li Li  |
 |   |   N Li    N Li |
 |  Li      Li        |
 |   | Li  N    Li N  |
 |   |Li LLi  Li Li   |
 Li  |                |
 |   |   N Li    N Li |
 |  Li      Li        |
 |N  .-Li--N----Li----.
 |  / Li Li   Li Li  /
 Li/      Li        /
 |/i       Li      /

Positions:
   0 Li     1.753389    5.061850    0.000000    ( 0.0000,  0.0000,  0.0000)
   1 Li     0.000000    2.024928    0.000000    ( 0.0000,  0.0000,  0.0000)
   2 Li     3.506756    2.024928    0.000000    ( 0.0000,  0.0000,  0.0000)
   3 Li     5.260124    5.061850    0.000000    ( 0.0000,  0.0000,  0.0000)
   4 Li     1.753389    3.037256    1.946139    ( 0.0000,  0.0000,  0.0000)
   5 Li     0.000000    0.000334    1.946139    ( 0.0000,  0.0000,  0.0000)
   6 Li     3.506756    0.000334    1.946139    ( 0.0000,  0.0000,  0.0000)
   7 Li     5.260124    3.037256    1.946139    ( 0.0000,  0.0000,  0.0000)
   8 Li     1.753367    1.012631    1.946139    ( 0.0000,  0.0000,  0.0000)
   9 Li     0.000000    4.049553    1.946139    ( 0.0000,  0.0000,  0.0000)
  10 Li     3.506735    4.049553    1.946139    ( 0.0000,  0.0000,  0.0000)
  11 Li     5.260103    1.012631    1.946139    ( 0.0000,  0.0000,  0.0000)
  12 Li     1.742070    5.083392    3.988212    ( 0.0000,  0.0000,  0.0000)
  13 Li    -0.000647    2.025372    3.901360    ( 0.0000,  0.0000,  0.0000)
  14 Li     3.506811    2.015864    3.972362    ( 0.0000,  0.0000,  0.0000)
  15 Li     5.269545    5.083333    3.989568    ( 0.0000,  0.0000,  0.0000)
  16 Li     1.757753    3.094868    5.777898    ( 0.0000,  0.0000,  0.0000)
  17 Li     0.000614    0.050414    5.977210    ( 0.0000,  0.0000,  0.0000)
  18 Li     3.504706    0.068904    6.153499    ( 0.0000,  0.0000,  0.0000)
  19 Li     5.254554    3.095419    5.790055    ( 0.0000,  0.0000,  0.0000)
  20 Li     1.761481    1.062317    5.820573    ( 0.0000,  0.0000,  0.0000)
  21 Li     0.001016    4.106683    5.984393    ( 0.0000,  0.0000,  0.0000)
  22 Li     3.504747    4.104406    6.049614    ( 0.0000,  0.0000,  0.0000)
  23 Li     5.250862    1.061359    5.831398    ( 0.0000,  0.0000,  0.0000)
  24 Li     1.521598    5.089701    8.027396    ( 0.0000,  0.0000,  0.0000)
  25 Li    -0.002701    2.113416    7.762882    ( 0.0000,  0.0000,  0.0000)
  26 Li     3.506077    2.176606    7.859268    ( 0.0000,  0.0000,  0.0000)
  27 Li     5.494301    5.085332    8.027010    ( 0.0000,  0.0000,  0.0000)
  28 Li     1.810809    3.183472    9.652193    ( 0.0000,  0.0000,  0.0000)
  29 Li    -0.003402    0.206342   10.687817    ( 0.0000,  0.0000,  0.0000)
  30 Li     3.501911   -0.045872    9.645583    ( 0.0000,  0.0000,  0.0000)
  31 Li     5.197937    3.187081    9.655379    ( 0.0000,  0.0000,  0.0000)
  32 Li     1.670022    1.072750    9.670671    ( 0.0000,  0.0000,  0.0000)
  33 Li    -0.001192    4.032133   10.512189    ( 0.0000,  0.0000,  0.0000)
  34 Li     3.498402    4.134817   10.748992    ( 0.0000,  0.0000,  0.0000)
  35 Li     5.343375    1.066668    9.641810    ( 0.0000,  0.0000,  0.0000)
  36 N      1.753389    5.061910    1.929076    ( 0.0000,  0.0000,  0.0000)
  37 N      0.000000    2.024989    1.929076    ( 0.0000,  0.0000,  0.0000)
  38 N      3.506756    2.024989    1.929076    ( 0.0000,  0.0000,  0.0000)
  39 N      5.260124    5.061910    1.929076    ( 0.0000,  0.0000,  0.0000)
  40 N      1.724713    5.114411    5.976595    ( 0.0000,  0.0000,  0.0000)
  41 N     -0.000614    2.078713    5.809245    ( 0.0000,  0.0000,  0.0000)
  42 N      3.505276    2.084529    5.914073    ( 0.0000,  0.0000,  0.0000)
  43 N      5.288037    5.114464    5.971926    ( 0.0000,  0.0000,  0.0000)
  44 N      1.729292    5.160078   10.048197    ( 0.0000,  0.0000,  0.0000)
  45 N     -0.004685    2.155474    9.655372    ( 0.0000,  0.0000,  0.0000)
  46 N      3.507504    2.061865    9.868601    ( 0.0000,  0.0000,  0.0000)
  47 N      5.275802    5.164677   10.064287    ( 0.0000,  0.0000,  0.0000)
  48 Li     3.578152    1.378420   11.624743    ( 0.0000,  0.0000,  0.0000)

Unit cell:
           periodic     x           y           z      points  spacing
  1. axis:    yes    7.013470    0.000000    0.000000    40     0.1753
  2. axis:    yes    0.000000    6.073843    0.000000    32     0.1898
  3. axis:    yes    0.000000    0.000000   29.936001   160     0.1871

  Lengths:   7.013470   6.073843  29.936001
  Angles:   90.000000  90.000000  90.000000

Effective grid spacing dv^(1/3) = 0.1840

                     log10-error:    total        iterations:
           time      wfs    density  energy       fermi  poisson
iter:   1  11:30:37  -2.37         -155.128475    3
iter:   2  11:30:49  -3.46  -2.13  -155.124482    4
iter:   3  11:31:00  -4.37  -2.15  -155.109283    4