User:   jngwng01@n716021
Date:   Mon Sep  6 08:23:23 2021
Arch:   x86_64
Pid:    12732
Python: 3.8.5
gpaw:   /uls/7/gpaw-20.1.0/lib/python3.8/site-packages/gpaw-20.1.0-py3.8-linux-x86_64.egg/gpaw
_gpaw:  /uls/7/gpaw-20.1.0/lib/python3.8/site-packages/gpaw-20.1.0-py3.8-linux-x86_64.egg/
        _gpaw.cpython-38-x86_64-linux-gnu.so
ase:    /uls/7/gpaw-20.1.0/lib/python3.8/site-packages/ase-3.20.1-py3.8.egg/ase (version 3.20.1)
numpy:  /uls/7/gpaw-20.1.0/lib/python3.8/site-packages/numpy (version 1.19.2)
scipy:  /uls/7/gpaw-20.1.0/lib/python3.8/site-packages/scipy-1.5.2-py3.8-linux-x86_64.egg/scipy (version 1.5.2)
units:  Angstrom and eV
cores: 32
OMP_NUM_THREADS: 1

Input parameters:
  convergence: {eigenstates: 1e-08}
  kpts: [5 6 1]
  mode: {ecut: 500.0,
         gammacentered: False,
         name: pw}
  occupations: {name: fermi-dirac,
                width: 0.03}
  random: True
  xc: {backend: libvdwxc,
       libvdwxc_name: vdW-DF-cx,
       name: vdW-DF-cx,
       semilocal_xc: GGA_X_LV_RPW86+LDA_C_PW,
       setup_name: PBE,
       vdwcoef: 1.0}

System changes: positions, numbers, cell, pbc, initial_charges, initial_magmoms

Initialize ...

Li-setup:
  name: Lithium
  id: 830b4218f175192f93f959cfc0aad614
  Z: 3
  valence: 1
  core: 2
  charge: 0.0
  file: /uls/7/gpaw-20.1.0/setups/gpaw-setups-0.9.20000/Li.PBE.gz
  compensation charges: gauss, rc=0.33, lmax=2
  cutoffs: 1.91(filt), 2.55(core),
  valence states:
                energy  radius
    2s(1.00)    -2.874   1.058
    2p(0.00)    -1.090   1.058
    *s          24.337   1.058

  Using partial waves for Li as LCAO basis

N-setup:
  name: Nitrogen
  id: f7500608b86eaa90eef8b1d9a670dc53
  Z: 7
  valence: 5
  core: 2
  charge: 0.0
  file: /uls/7/gpaw-20.1.0/setups/gpaw-setups-0.9.20000/N.PBE.gz
  compensation charges: gauss, rc=0.18, lmax=2
  cutoffs: 1.11(filt), 0.96(core),
  valence states:
                energy  radius
    2s(2.00)   -18.583   0.603
    2p(3.00)    -7.089   0.529
    *s           8.629   0.603
    *p          20.123   0.529
    *d           0.000   0.577

  Using partial waves for N as LCAO basis

Reference energy: -25283.807400

Spin-paired calculation

Occupation numbers:
  Fermi-Dirac: width=0.0300 eV

Convergence criteria:
  Maximum total energy change: 0.0005 eV / electron
  Maximum integral of absolute density change: 0.0001 electrons
  Maximum integral of absolute eigenstate change: 1e-08 eV^2
  Maximum number of iterations: 333

Symmetries present (total): 1

  ( 1  0  0)
  ( 0  1  0)
  ( 0  0  1)

30 k-points: 5 x 6 x 1 Monkhorst-Pack grid
15 k-points in the irreducible part of the Brillouin zone
       k-points in crystal coordinates                weights
   0:     0.00000000    0.08333333    0.00000000          2/30
   1:     0.00000000    0.25000000    0.00000000          2/30
   2:     0.00000000    0.41666667    0.00000000          2/30
   3:     0.20000000   -0.41666667    0.00000000          2/30
   4:     0.20000000   -0.25000000    0.00000000          2/30
   5:     0.20000000   -0.08333333    0.00000000          2/30
   6:     0.20000000    0.08333333    0.00000000          2/30
   7:     0.20000000    0.25000000    0.00000000          2/30
   8:     0.20000000    0.41666667    0.00000000          2/30
   9:     0.40000000   -0.41666667    0.00000000          2/30
          ...
  14:     0.40000000    0.41666667    0.00000000          2/30

Wave functions: Plane wave expansion
  Cutoff energy: 500.000 eV
  Number of coefficients (min, max): 32335, 32478
  Pulay-stress correction: 0.000000 eV/Ang^3 (de/decut=0.000000)
  Using FFTW library
  ScaLapack parameters: grid=1x1, blocksize=None
  Wavefunction extrapolation:
    Improved wavefunction reuse through dual PAW basis

Eigensolver
   Davidson(niter=2, smin=None, normalize=True)

Densities:
  Coarse grid: 40*32*160 grid
  Fine grid: 80*64*320 grid
  Total Charge: 0.000000

Density mixing:
  Method: separate
  Backend: pulay
  Linear mixing parameter: 0.05
  Mixing with 5 old densities
  Damping of long wave oscillations: 50

Hamiltonian:
  XC and Coulomb potentials evaluated on a 80*64*320 grid
  Using the vdW-DF-cx Exchange-Correlation functional

XC parameters: vdW-DF-cx with libvdwxc
  Semilocal: GGA_X_LV_RPW86+LDA_C_PW with 2 nearest neighbor stencil
  Local blocksize: 3 x 64 x 320
  PAW datasets: PBE

Total number of cores used: 32
Parallelization over k-points: 8
Domain decomposition: 1 x 1 x 4
                      2 x 2 x 8 (xc only)

Number of atoms: 49
Number of atomic orbitals: 196
Number of bands in calculation: 63
Number of valence electrons: 97
Bands to converge: occupied

... initialized

Initializing position-dependent things.

Density initialized from atomic densities
Creating initial wave functions:
  63 bands from LCAO basis set

 |   |     Li         |
 |  Li   N  Li   N    |
 |   | Li       Li    |
 |N  |Li LiN  Li Li   |
 Li  |    Li          |
 |Li |   N Li    N    |
 |  Li      Li        |
 |N  | Li  N    Li    |
 |   |Li Li   Li Li   |
 Li  |    Li          |
 |Li |   N Li    N    |
 |  Li      Li        |
 |N  .-Li--N----Li----.
 |  / Li Li   Li Li  /
 Li/      Li        /
 |/i       Li      /

Positions:
   0 Li     1.753389    5.061850    0.000000    ( 0.0000,  0.0000,  0.0000)
   1 Li     0.000000    2.024928    0.000000    ( 0.0000,  0.0000,  0.0000)
   2 Li     3.506756    2.024928    0.000000    ( 0.0000,  0.0000,  0.0000)
   3 Li     5.260124    5.061850    0.000000    ( 0.0000,  0.0000,  0.0000)
   4 Li     1.753389    3.037256    1.946139    ( 0.0000,  0.0000,  0.0000)
   5 Li     0.000000    0.000334    1.946139    ( 0.0000,  0.0000,  0.0000)
   6 Li     3.506756    0.000334    1.946139    ( 0.0000,  0.0000,  0.0000)
   7 Li     5.260124    3.037256    1.946139    ( 0.0000,  0.0000,  0.0000)
   8 Li     1.753367    1.012631    1.946139    ( 0.0000,  0.0000,  0.0000)
   9 Li     0.000000    4.049553    1.946139    ( 0.0000,  0.0000,  0.0000)
  10 Li     3.506735    4.049553    1.946139    ( 0.0000,  0.0000,  0.0000)
  11 Li     5.260103    1.012631    1.946139    ( 0.0000,  0.0000,  0.0000)
  12 Li     1.753389    5.061850    3.920419    ( 0.0000,  0.0000,  0.0000)
  13 Li     0.000000    2.024928    3.920419    ( 0.0000,  0.0000,  0.0000)
  14 Li     3.506756    2.024928    3.920419    ( 0.0000,  0.0000,  0.0000)
  15 Li     5.260124    5.061850    3.920419    ( 0.0000,  0.0000,  0.0000)
  16 Li     1.753389    3.037256    5.887813    ( 0.0000,  0.0000,  0.0000)
  17 Li     0.000000    0.000334    5.887813    ( 0.0000,  0.0000,  0.0000)
  18 Li     3.506756    0.000334    5.887813    ( 0.0000,  0.0000,  0.0000)
  19 Li     5.260124    3.037256    5.887813    ( 0.0000,  0.0000,  0.0000)
  20 Li     1.753367    1.012631    5.887813    ( 0.0000,  0.0000,  0.0000)
  21 Li     0.000000    4.049553    5.887813    ( 0.0000,  0.0000,  0.0000)
  22 Li     3.506735    4.049553    5.887813    ( 0.0000,  0.0000,  0.0000)
  23 Li     5.260103    1.012631    5.887813    ( 0.0000,  0.0000,  0.0000)
  24 Li     1.753389    5.061850    7.859398    ( 0.0000,  0.0000,  0.0000)
  25 Li     0.000000    2.024928    7.859398    ( 0.0000,  0.0000,  0.0000)
  26 Li     3.506756    2.024928    7.859398    ( 0.0000,  0.0000,  0.0000)
  27 Li     5.260124    5.061850    7.859398    ( 0.0000,  0.0000,  0.0000)
  28 Li     1.753403    3.037286    9.979765    ( 0.0000,  0.0000,  0.0000)
  29 Li     0.000000    0.000364    9.979765    ( 0.0000,  0.0000,  0.0000)
  30 Li     3.506770    0.000364    9.979765    ( 0.0000,  0.0000,  0.0000)
  31 Li     5.260138    3.037286    9.979765    ( 0.0000,  0.0000,  0.0000)
  32 Li     1.753389    1.012661    9.979765    ( 0.0000,  0.0000,  0.0000)
  33 Li     0.000000    4.049583    9.979765    ( 0.0000,  0.0000,  0.0000)
  34 Li     3.506756    4.049583    9.979765    ( 0.0000,  0.0000,  0.0000)
  35 Li     5.260124    1.012661    9.979765    ( 0.0000,  0.0000,  0.0000)
  36 N      1.753389    5.061910    1.929076    ( 0.0000,  0.0000,  0.0000)
  37 N      0.000000    2.024989    1.929076    ( 0.0000,  0.0000,  0.0000)
  38 N      3.506756    2.024989    1.929076    ( 0.0000,  0.0000,  0.0000)
  39 N      5.260124    5.061910    1.929076    ( 0.0000,  0.0000,  0.0000)
  40 N      1.753389    5.061910    5.864163    ( 0.0000,  0.0000,  0.0000)
  41 N      0.000000    2.024989    5.864163    ( 0.0000,  0.0000,  0.0000)
  42 N      3.506756    2.024989    5.864163    ( 0.0000,  0.0000,  0.0000)
  43 N      5.260124    5.061910    5.864163    ( 0.0000,  0.0000,  0.0000)
  44 N      1.753389    5.061910    9.782786    ( 0.0000,  0.0000,  0.0000)
  45 N      0.000000    2.024989    9.782786    ( 0.0000,  0.0000,  0.0000)
  46 N      3.506756    2.024989    9.782786    ( 0.0000,  0.0000,  0.0000)
  47 N      5.260124    5.061910    9.782786    ( 0.0000,  0.0000,  0.0000)
  48 Li     3.536128    1.995755   12.370364    ( 0.0000,  0.0000,  0.0000)

Unit cell:
           periodic     x           y           z      points  spacing
  1. axis:    yes    7.013470    0.000000    0.000000    40     0.1753
  2. axis:    yes    0.000000    6.073843    0.000000    32     0.1898
  3. axis:    yes    0.000000    0.000000   29.936001   160     0.1871

  Lengths:   7.013470   6.073843  29.936001
  Angles:   90.000000  90.000000  90.000000

Effective grid spacing dv^(1/3) = 0.1840

                     log10-error:    total        iterations:
           time      wfs    density  energy       fermi  poisson
iter:   1  08:23:52                -187.120519    3
iter:   2  08:24:03  -0.99  -0.50  -176.668129    31
iter:   3  08:24:14  -0.37  -0.56  -179.343545    38
iter:   4  08:24:25  -1.88  -0.60  -164.759117    31
iter:   5  08:24:35  -2.63  -0.69  -162.025375    4
iter:   6  08:24:46  -1.96  -0.71  -157.660855    5
iter:   7  08:24:57  -1.74  -0.82  -155.894379    4
iter:   8  08:25:08  -1.74  -0.89  -154.899498    6
iter:   9  08:25:19  -1.31  -0.96  -155.365787    34
iter:  10  08:25:30  -1.43  -1.19  -154.402888    35
iter:  11  08:25:40  -2.42  -1.31  -155.537881    4
iter:  12  08:25:51  -2.66  -1.11  -155.053922    3
iter:  13  08:26:02  -1.51  -1.18  -154.804663    35
iter:  14  08:26:13  -2.05  -1.36  -154.328992    31
iter:  15  08:26:24  -2.75  -1.46  -154.163133    4
iter:  16  08:26:34  -2.72  -1.54  -154.047927    4
iter:  17  08:26:45  -2.41  -1.58  -153.883869    6
iter:  18  08:26:56  -3.62  -1.90  -153.878825    3
iter:  19  08:27:03  -3.67  -1.92  -153.861362    3
iter:  20  08:27:14  -2.70  -1.94  -153.976562    4
iter:  21  08:27:25  -3.02  -1.69  -153.859575    32
iter:  22  08:27:36  -3.83  -2.05  -153.866679    3
iter:  23  08:27:47  -4.10  -2.15  -153.872186    4
iter:  24  08:27:57  -4.17  -2.19  -153.871473    4
iter:  25  08:28:08  -4.41  -2.31  -153.869385    4
iter:  26  08:28:19  -4.15  -2.45  -153.871148    3
iter:  27  08:28:30  -4.77  -2.50  -153.874068    4
iter:  28  08:28:41  -4.37  -2.46  -153.872051    4
iter:  29  08:28:51  -4.67  -2.47  -153.872001    3
iter:  30  08:29:02  -5.56  -3.11  -153.870659    3
iter:  31  08:29:13  -6.19  -3.28  -153.871068    3
iter:  32  08:29:24  -5.77  -3.39  -153.871423    3
iter:  33  08:29:34  -6.48  -3.34  -153.870912    3
[...]
 47 N    -0.09722    0.02274    0.20926
 48 Li   -0.01402    0.01349   -1.24201

System changes: positions

[...]

Density initialized from wave functions
 |   |     Li         |
 |   |       Li       |
 |  Li   N  Li   N    |
 |   | Li       Li    |
 |   |Li LiN  Li LiN  |
 Li  |                |
 |   |   N Li    N Li |
 |  Li      Li        |
 |N  | Li  N    Li    |
 |   |Li Li   Li Li   |
 Li  |    Li          |
 |Li |   N Li    N    |
 |  Li      Li        |
 |N  .-Li--N----Li----.
 |  / Li Li   Li Li  /
 Li/      Li        /
 |/i       Li      /

[...]

Density initialized from wave functions
 |   Li    LiLi       |
 |  Li   N  Li   N    |
 |   | Li  N    Li    |
 |   |Li Li   Li LiN  |
 |   |   N LiLi  N Li |
 |  Li      Li        |
 |N  | Li  N    Li    |
 |   |Li Li   Li Li   |
 Li  |                |
 |Li |   N Li    N    |
 |  Li      Li        |
 |N  .-Li--N----Li----.
 |  / Li Li   Li Li  /
 Li/      Li        /
 |/i       Li      /

[...]

Density initialized from wave functions
 |   Li    LiLi       |
 |  Li   N  Li   N    |
 |   | Li  N    Li    |
 |   |Li Li   Li LiN  |
 |   |   N LiLi  N Li |
 |  Li      Li        |
 |N  | Li  N    Li    |
 |   |Li Li   Li Li   |
 Li  |                |
 |Li |   N Li    N    |
 |  Li      Li        |
 |N  .-Li--N----Li----.
 |  / Li Li   Li Li  /
 Li/      Li        /
 |/i       Li      /

[...]

Density initialized from wave functions
 |   Li    LiLi       |
 |  Li   N  Li   N    |
 |   | Li  N    Li    |
 |   |Li Li   Li LiN  |
 |Li |   N LiLi  N    |
 |  Li      Li        |
 |N  | Li  N    Li    |
 |   |Li Li   Li Li   |
 Li  |                |
 |Li |   N Li    N    |
 |  Li      Li        |
 |N  .-Li--N----Li----.
 |  / Li Li   Li Li  /
 Li/      Li        /
 |/i       Li      /

[...]

Density initialized from wave functions
 |   Li    LiLi       |
 |  Li   N  Li   N    |
 |   | Li  N    Li    |
 |N  |Li Li   Li Li   |
 |Li |   N Li    N    |
 |  Li      Li        |
 |N  | Li  N    Li    |
 |   |Li Li   Li Li   |
 Li  |    Li          |
 |Li |   N Li    N    |
 |  Li      Li        |
 |N  .-Li--N----Li----.
 |  / Li Li   Li Li  /
 Li/      Li        /
 |/i       Li      /

[...]

Density initialized from wave functions
 |   Li    Li Li      |
 |  Li   N  Li   N    |
 |   | Li  N    Li    |
 |N  |Li Li   Li Li   |
 |Li |   N Li    N    |
 |  Li      Li        |
 |   | Li  N    Li N  |
 |   |Li Li   Li Li   |
 Li  |    Li          |
 |Li |   N Li    N    |
 |  Li      Li        |
 |N  .-Li--N----Li----.
 |  / Li Li   Li Li  /
 Li/      Li        /
 |/i       Li      /

[...]

Density initialized from wave functions
 |   Li    LiLi       |
 |  Li   N  Li   N    |
 |   | Li  N    Li    |
 |N  |Li Li   Li Li   |
 |Li |   N Li    N    |
 |   |      Li       Li
 |N  | Li  N    Li    |
 |   |Li Li   Li Li   |
 Li  |    Li          |
 |Li |   N Li    N    |
 |  Li      Li        |
 |N  .-Li--N----Li----.
 |  / Li Li   Li Li  /
 Li/      Li        /
 |/i       Li      /

[...]

Density initialized from wave functions
 |   Li    LiLi       |
 |  Li   N  Li   N    |
 |   | Li  N    Li    |
 |N  |Li Li   Li Li   |
 |Li |   N Li    N    |
 |   |      Li       Li
 |N  | Li  N    Li    |
 |   |Li Li   Li Li   |
 |   |    Li      Li  |
 |Li |   N Li    N    |
 |  Li      Li        |
 |N  .-Li--N----Li----.
 |  / Li Li   Li Li  /
 Li/      Li        /
 |/i       Li      /

[...]

Density initialized from wave functions
 |   Li    LiLi       |
 |  Li   N  Li   N    |
 |   | Li  N    Li    |
 |N  |Li Li   Li Li   |
 |Li |   N Li    N    |
 |   |      Li       Li
 |N  | Li  N    Li    |
 |   |Li Li   Li Li   |
 |   |    Li      Li  |
 |Li |   N Li    N    |
 |  Li      Li        |
 |N  .-Li--N----Li----.
 |  / Li Li   Li Li  /
 Li/      Li        /
 |/i       Li      /

[...]

Density initialized from wave functions
 |   Li    LiLi       |
 |  Li   N  Li   N    |
 |   | Li  N    Li    |
 |N  |Li Li   Li Li   |
 |Li |   N Li    N    |
 |  Li      Li        |
 |N  | Li  N    Li    |
 |   |Li Li   Li Li   |
 |   |    Li      Li  |
 |Li |   N Li    N    |
 |  Li      Li        |
 |N  .-Li--N----Li----.
 |  / Li Li   Li Li  /
 Li/      Li        /
 |/i       Li      /

[...]

Density initialized from wave functions
 |   Li    LiLi       |
 |  Li   N  Li   N    |
 |   | Li  N    Li    |
 |N  |Li Li   Li Li   |
 |Li |   N Li    N    |
 |  Li      Li        |
 |N  | Li  N    Li    |
 |   |Li Li   Li Li   |
 |   |    Li      Li  |
 |Li |   N Li    N    |
 |  Li      Li        |
 |N  .-Li--N----Li----.
 |  / Li Li   Li Li  /
 Li/      Li        /
 |/i       Li      /

[...]

Density initialized from wave functions
 |   Li    LiLi       |
 |  Li   N  Li   N    |
 |   | Li  N    Li    |
 |N  |Li Li   Li Li   |
 |Li |   N Li    N    |
 |  Li      Li        |
 |N  | Li  N    Li    |
 |   |Li Li   Li Li   |
 Li  |    Li          |
 |Li |   N Li    N    |
 |  Li      Li        |
 |N  .-Li--N----Li----.
 |  / Li Li   Li Li  /
 Li/      Li        /
 |/i       Li      /

[...]

Density initialized from wave functions
 |   Li    Li Li      |
 |  Li   N  Li   N    |
 |   | Li  N    Li    |
 |N  |LiLi    Li Li   |
 |Li |   N Li    N    |
 |  Li      Li        |
 |N  | Li  N    Li    |
 |   |Li Li   Li Li   |
 Li  |    Li          |
 |Li |   N Li    N    |
 |  Li      Li        |
 |N  .-Li--N----Li----.
 |  / Li Li   Li Li  /
 Li/      Li        /
 |/i       Li      /

[...]

Density initialized from wave functions
 |   |     Li Li      |
 |  Li   N  Li   N    |
 |   | Li  N    Li    |
 |N  |LiLi    Li Li   |
 Li  |                |
 |Li |   N Li    N    |
 |  Li      Li        |
 |N  | Li  N    Li    |
 |   |Li Li   Li Li   |
 Li  |    Li          |
 |Li |   N Li    N    |
 |  Li      Li        |
 |N  .-Li--N----Li----.
 |  / Li Li   Li Li  /
 Li/      Li        /
 |/i       Li      /

[...]

Density initialized from wave functions
 |   |     Li Li      |
 |  Li   N  Li   N    |
 |   | Li  N    Li    |
 |N  |LiLi    Li Li   |
 Li  |                |
 |Li |   N Li    N    |
 |  Li      Li        |
 |N  | Li  N    Li    |
 |   |Li Li   Li Li   |
 Li  |    Li          |
 |Li |   N Li    N    |
 |  Li      Li        |
 |N  .-Li--N----Li----.
 |  / Li Li   Li Li  /
 Li/      Li        /
 |/i       Li      /

[...]

Density initialized from wave functions
 |   |     Li Li      |
 |  Li   N  Li   N    |
 |   | Li  N    Li    |
 Li  |LiLi    Li Li   |
 |Li |   N Li    N    |
 |  Li      Li        |
 |N  | Li  N    Li    |
 |   |Li Li   Li Li   |
 Li  |    Li          |
 |Li |   N Li    N    |
 |  Li      Li        |
 |N  .-Li--N----Li----.
 |  / Li Li   Li Li  /
 Li/      Li        /
 |/i       Li      /

[...]

Density initialized from wave functions
 |   |     Li         |
 |  Li   N  Li   N    |
 |   | Li  N    Li    |
 |N  |LiLi    Li LLi  |
 |   |    Li          |
 |Li |   N Li    N    |
 |  Li      Li        |
 |N  | Li  N    Li    |
 |   |Li Li   Li Li   |
 Li  |    Li          |
 |Li |   N Li    N    |
 |  Li      Li        |
 |N  .-Li--N----Li----.
 |  / Li Li   Li Li  /
 Li/      Li        /
 |/i       Li      /

[...]

Density initialized from wave functions
 |   |   N Li         |
 |   |      Li   N   Li
 |   | Li  N    Li    |
 |N  |LiLi    Li  Li  |
 |   |    Li          |
 |Li |   N Li    N    |
 |  Li      Li        |
 |N  | Li  N    Li    |
 |   |Li Li   Li Li   |
 Li  |    Li          |
 |Li |   N Li    N    |
 |  Li      Li        |
 |N  .-Li--N----Li----.
 |  / Li Li   Li Li  /
 Li/      Li        /
 |/i       Li      /

[...]

Density initialized from wave functions
 |   |     Li         |
 |   |   N  Li   N   Li
 |   | Li  N    Li    |
 |N  |LiLi    Li LLi  |
 |   |    Li          |
 |Li |   N Li    N    |
 |  Li      Li        |
 |N  | Li  N    Li    |
 |   |Li Li   Li Li   |
 Li  |    Li          |
 |Li |   N Li    N    |
 |  Li      Li        |
 |N  .-Li--N----Li----.
 |  / Li Li   Li Li  /
 Li/      Li        /
 |/i       Li      /

[...]

Density initialized from wave functions
 |   |     Li         |
 |   |   N  Li   N   Li
 |   | Li  N    Li    |
 |N  |LiLi    Li LLi  |
 |   |    Li          |
 |Li |   N Li    N    |
 |  Li      Li        |
 |N  | Li  N    Li    |
 |   |Li Li   Li Li   |
 Li  |    Li          |
 |Li |   N Li    N    |
 |  Li      Li        |
 |N  .-Li--N----Li----.
 |  / Li Li   Li Li  /
 Li/      Li        /
 |/i       Li      /

[...]

Density initialized from wave functions
 |   |   N Li         |
 |   |      Li   N   Li
 |   | Li  N    Li    |
 |N  |LiLi     Li Li  |
 |   |    Li          |
 |Li |   N Li    N    |
 |  Li      Li        |
 |N  | Li  N    Li    |
 |   |Li Li   Li Li   |
 Li  |    Li          |
 |Li |   N Li    N    |
 |  Li      Li        |
 |N  .-Li--N----Li----.
 |  / Li Li   Li Li  /
 Li/      Li        /
 |/i       Li      /

[...]

Converged after 18 iterations.

Dipole moment: (-0.228466, -2.624921, 5.712739) |e|*Ang

Energy contributions relative to reference atoms: (reference = -25283.807400)

Kinetic:       +178.983732
Potential:     -130.282950
External:        +0.000000
XC:            -202.430131
Entropy (-ST):   -0.021839
Local:           -1.033286
Free energy:   -154.784474
Extrapolated:  -154.773554

Non-local vdW-DF-cx correlation energy: 15.299586
Semilocal GGA_X_LV_RPW86+LDA_C_PW energy: -1089.029002
(Not including atomic contributions)
Fermi level: -0.94379

Showing only first 2 kpts
 Kpt  Band  Eigenvalues  Occupancy
  0    46     -1.24187    0.13333
  0    47     -0.85435    0.00644
  0    48     -0.74336    0.00017
  0    49     -0.26724    0.00000

  1    46     -1.31047    0.13333
  1    47     -1.16072    0.13324
  1    48     -0.88113    0.01469
  1    49     -0.30287    0.00000

No gap

Forces in eV/Ang:
  0 Li   -0.00030    0.00005   -0.10412
  1 Li    0.00005   -0.00002   -0.10343
  2 Li   -0.00004    0.00002   -0.10388
  3 Li    0.00027    0.00003   -0.10377
  4 Li   -0.00358    0.00365    0.02925
  5 Li   -0.00028   -0.00012    0.03004
  6 Li    0.00028   -0.00150    0.02812
  7 Li    0.00331    0.00430    0.02953
  8 Li   -0.00349   -0.00386    0.02994
  9 Li   -0.00018   -0.00059    0.02985
 10 Li    0.00055    0.00072    0.02698
 11 Li    0.00366   -0.00444    0.03030
 12 Li    0.07168    0.03718    0.03554
 13 Li   -0.00475    0.02777    0.04388
 14 Li    0.00490    0.01704    0.29981
 15 Li   -0.07176    0.03668    0.01990
 16 Li    0.01193    0.00021   -0.02529
 17 Li   -0.00128   -0.06906   -0.01300
 18 Li   -0.00005    0.02783    0.05234
 19 Li   -0.01160    0.00371   -0.03268
 20 Li    0.01068   -0.01245   -0.02495
 21 Li   -0.00118    0.05789   -0.00328
 22 Li    0.00008   -0.04217    0.04499
 23 Li   -0.01024   -0.01553   -0.03219
 24 Li    0.09511   -0.00124    0.02114
 25 Li   -0.00070    0.01338   -0.11322
 26 Li    0.00363    0.01398   -0.06703
 27 Li   -0.10023   -0.00135    0.01110
 28 Li    0.01757   -0.00033   -0.04218
 29 Li    0.00465    0.04357    0.06071
 30 Li    0.00289   -0.04315    0.07112
 31 Li   -0.02333   -0.00637   -0.04568
 32 Li    0.02016   -0.00953   -0.04855
 33 Li    0.00503   -0.02931    0.02373
 34 Li    0.00256    0.03950    0.16037
 35 Li   -0.02589   -0.00467   -0.05094
 36 N     0.00214    0.01469   -0.13186
 37 N     0.00053    0.01629   -0.14261
 38 N    -0.00051    0.01727   -0.11717
 39 N    -0.00229    0.01488   -0.13921
 40 N    -0.07374    0.00635    0.04200
 41 N     0.00018    0.00939    0.03966
 42 N    -0.00024    0.00903   -0.05775
 43 N     0.07452    0.00604    0.04670
 44 N     0.01143    0.02286    0.08210
 45 N    -0.00501    0.01084    0.01354
 46 N     0.00514   -0.00721    0.05532
 47 N    -0.02243    0.02399    0.13470
 48 Li    0.01019   -0.04881   -0.15079

System changes: positions

Initializing position-dependent things.

Density initialized from wave functions
 |   |   N Li    N    |
 |   |      Li       Li
 |   | Li  N    Li    |
 |N  |LiLi     Li Li  |
 |   |    Li          |
 |Li |   N Li    N    |
 |  Li      Li        |
 |N  | Li  N    Li    |
 |   |Li Li   Li Li   |
 Li  |    Li          |
 |Li |   N Li    N    |
 |  Li      Li        |
 |N  .-Li--N----Li----.
 |  / Li Li   Li Li  /
 Li/      Li        /
 |/i       Li      /

Positions:
   0 Li     1.753389    5.061850    0.000000    ( 0.0000,  0.0000,  0.0000)
   1 Li     0.000000    2.024928    0.000000    ( 0.0000,  0.0000,  0.0000)
   2 Li     3.506756    2.024928    0.000000    ( 0.0000,  0.0000,  0.0000)
   3 Li     5.260124    5.061850    0.000000    ( 0.0000,  0.0000,  0.0000)
   4 Li     1.753389    3.037256    1.946139    ( 0.0000,  0.0000,  0.0000)
   5 Li     0.000000    0.000334    1.946139    ( 0.0000,  0.0000,  0.0000)
   6 Li     3.506756    0.000334    1.946139    ( 0.0000,  0.0000,  0.0000)
   7 Li     5.260124    3.037256    1.946139    ( 0.0000,  0.0000,  0.0000)
   8 Li     1.753367    1.012631    1.946139    ( 0.0000,  0.0000,  0.0000)
   9 Li     0.000000    4.049553    1.946139    ( 0.0000,  0.0000,  0.0000)
  10 Li     3.506735    4.049553    1.946139    ( 0.0000,  0.0000,  0.0000)
  11 Li     5.260103    1.012631    1.946139    ( 0.0000,  0.0000,  0.0000)
  12 Li     1.753389    5.061850    3.920419    ( 0.0000,  0.0000,  0.0000)
  13 Li     0.000000    2.024928    3.920419    ( 0.0000,  0.0000,  0.0000)
  14 Li     3.506756    2.024928    3.920419    ( 0.0000,  0.0000,  0.0000)
  15 Li     5.260124    5.061850    3.920419    ( 0.0000,  0.0000,  0.0000)
  16 Li     1.757841    3.076114    5.914142    ( 0.0000,  0.0000,  0.0000)
  17 Li     0.000059    0.050878    5.791231    ( 0.0000,  0.0000,  0.0000)
  18 Li     3.506915    0.031620    5.907189    ( 0.0000,  0.0000,  0.0000)
  19 Li     5.255794    3.074988    5.920498    ( 0.0000,  0.0000,  0.0000)
  20 Li     1.758607    1.049919    5.927691    ( 0.0000,  0.0000,  0.0000)
  21 Li     0.000082    4.073576    5.792156    ( 0.0000,  0.0000,  0.0000)
  22 Li     3.506914    4.099829    5.883109    ( 0.0000,  0.0000,  0.0000)
  23 Li     5.255090    1.050944    5.934761    ( 0.0000,  0.0000,  0.0000)
  24 Li     1.558307    5.094136    7.891144    ( 0.0000,  0.0000,  0.0000)
  25 Li     0.010603    2.066876    7.845688    ( 0.0000,  0.0000,  0.0000)
  26 Li     3.495723    2.117598    7.905602    ( 0.0000,  0.0000,  0.0000)
  27 Li     5.454302    5.093113    7.872789    ( 0.0000,  0.0000,  0.0000)
  28 Li     1.711398    3.109911    9.780712    ( 0.0000,  0.0000,  0.0000)
  29 Li    -0.005005    0.091626   10.418801    ( 0.0000,  0.0000,  0.0000)
  30 Li     3.508488    0.050453    9.798194    ( 0.0000,  0.0000,  0.0000)
  31 Li     5.305399    3.110300    9.749877    ( 0.0000,  0.0000,  0.0000)
  32 Li     1.692385    1.041172    9.741233    ( 0.0000,  0.0000,  0.0000)
  33 Li    -0.003793    4.089369   10.306450    ( 0.0000,  0.0000,  0.0000)
  34 Li     3.509650    4.114950    9.974463    ( 0.0000,  0.0000,  0.0000)
  35 Li     5.325191    1.040282    9.708963    ( 0.0000,  0.0000,  0.0000)
  36 N      1.753389    5.061910    1.929076    ( 0.0000,  0.0000,  0.0000)
  37 N      0.000000    2.024989    1.929076    ( 0.0000,  0.0000,  0.0000)
  38 N      3.506756    2.024989    1.929076    ( 0.0000,  0.0000,  0.0000)
  39 N      5.260124    5.061910    1.929076    ( 0.0000,  0.0000,  0.0000)
  40 N      1.744982    5.100495    5.850986    ( 0.0000,  0.0000,  0.0000)
  41 N      0.000739    2.063233    5.850128    ( 0.0000,  0.0000,  0.0000)
  42 N      3.506099    2.066807    5.912883    ( 0.0000,  0.0000,  0.0000)
  43 N      5.268290    5.100519    5.846139    ( 0.0000,  0.0000,  0.0000)
  44 N      1.733991    5.119709    9.855651    ( 0.0000,  0.0000,  0.0000)
  45 N      0.001527    2.083127    9.761051    ( 0.0000,  0.0000,  0.0000)
  46 N      3.508434    2.079054    9.861225    ( 0.0000,  0.0000,  0.0000)
  47 N      5.283200    5.119387    9.821507    ( 0.0000,  0.0000,  0.0000)
  48 Li     3.523508    1.967830   11.730709    ( 0.0000,  0.0000,  0.0000)

Unit cell:
           periodic     x           y           z      points  spacing
  1. axis:    yes    7.013470    0.000000    0.000000    40     0.1753
  2. axis:    yes    0.000000    6.073843    0.000000    32     0.1898
  3. axis:    yes    0.000000    0.000000   29.936001   160     0.1871

  Lengths:   7.013470   6.073843  29.936001
  Angles:   90.000000  90.000000  90.000000

Effective grid spacing dv^(1/3) = 0.1840

                     log10-error:    total        iterations:
           time      wfs    density  energy       fermi  poisson
iter:   1  10:04:22  -2.42         -154.874785    5
iter:   2  10:04:33  -3.19  -1.86  -154.929738    4
iter:   3  10:04:45  -3.89  -1.73  -154.797004    4
iter:   4  10:04:56  -4.72  -2.42  -154.790581    3
iter:   5  10:05:07  -4.17  -2.54  -154.788008    3
iter:   6  10:05:18  -4.38  -2.46  -154.794636    4
iter:   7  10:05:29  -5.17  -2.52  -154.795052    2