User:   jngwng01@n716020
Date:   Mon Sep  6 19:47:54 2021
Arch:   x86_64
Pid:    12940
Python: 3.8.5
gpaw:   /uls/7/gpaw-20.1.0/lib/python3.8/site-packages/gpaw-20.1.0-py3.8-linux-x86_64.egg/gpaw
_gpaw:  /uls/7/gpaw-20.1.0/lib/python3.8/site-packages/gpaw-20.1.0-py3.8-linux-x86_64.egg/
        _gpaw.cpython-38-x86_64-linux-gnu.so
ase:    /uls/7/gpaw-20.1.0/lib/python3.8/site-packages/ase-3.20.1-py3.8.egg/ase (version 3.20.1)
numpy:  /uls/7/gpaw-20.1.0/lib/python3.8/site-packages/numpy (version 1.19.2)
scipy:  /uls/7/gpaw-20.1.0/lib/python3.8/site-packages/scipy-1.5.2-py3.8-linux-x86_64.egg/scipy (version 1.5.2)
units:  Angstrom and eV
cores: 32
OMP_NUM_THREADS: 1

Input parameters:
  convergence: {density: 0.0001,
                eigenstates: 1e-07}
  kpts: [5 5 1]
  mode: {ecut: 500.0,
         gammacentered: False,
         name: pw}
  occupations: {name: fermi-dirac,
                width: 0.05}
  random: True
  xc: PBE

System changes: positions, numbers, cell, pbc, initial_charges, initial_magmoms

Initialize ...

Li-setup:
  name: Lithium
  id: 830b4218f175192f93f959cfc0aad614
  Z: 3
  valence: 1
  core: 2
  charge: 0.0
  file: /uls/7/gpaw-20.1.0/setups/gpaw-setups-0.9.20000/Li.PBE.gz
  compensation charges: gauss, rc=0.33, lmax=2
  cutoffs: 1.91(filt), 2.55(core),
  valence states:
                energy  radius
    2s(1.00)    -2.874   1.058
    2p(0.00)    -1.090   1.058
    *s          24.337   1.058

  Using partial waves for Li as LCAO basis

N-setup:
  name: Nitrogen
  id: f7500608b86eaa90eef8b1d9a670dc53
  Z: 7
  valence: 5
  core: 2
  charge: 0.0
  file: /uls/7/gpaw-20.1.0/setups/gpaw-setups-0.9.20000/N.PBE.gz
  compensation charges: gauss, rc=0.18, lmax=2
  cutoffs: 1.11(filt), 0.96(core),
  valence states:
                energy  radius
    2s(2.00)   -18.583   0.603
    2p(3.00)    -7.089   0.529
    *s           8.629   0.603
    *p          20.123   0.529
    *d           0.000   0.577

  Using partial waves for N as LCAO basis

Reference energy: -33644.147259

Spin-paired calculation

Occupation numbers:
  Fermi-Dirac: width=0.0500 eV

Convergence criteria:
  Maximum total energy change: 0.0005 eV / electron
  Maximum integral of absolute density change: 0.0001 electrons
  Maximum integral of absolute eigenstate change: 1e-07 eV^2
  Maximum number of iterations: 333

Symmetries present (total): 1

  ( 1  0  0)
  ( 0  1  0)
  ( 0  0  1)

25 k-points: 5 x 5 x 1 Monkhorst-Pack grid
13 k-points in the irreducible part of the Brillouin zone
       k-points in crystal coordinates                weights
   0:     0.00000000    0.00000000    0.00000000          1/25
   1:     0.00000000    0.20000000    0.00000000          2/25
   2:     0.00000000    0.40000000    0.00000000          2/25
   3:     0.20000000   -0.40000000    0.00000000          2/25
   4:     0.20000000   -0.20000000    0.00000000          2/25
   5:     0.20000000    0.00000000    0.00000000          2/25
   6:     0.20000000    0.20000000    0.00000000          2/25
   7:     0.20000000    0.40000000    0.00000000          2/25
   8:     0.40000000   -0.40000000    0.00000000          2/25
   9:     0.40000000   -0.20000000    0.00000000          2/25
          ...
  12:     0.40000000    0.40000000    0.00000000          2/25

Wave functions: Plane wave expansion
  Cutoff energy: 500.000 eV
  Number of coefficients (min, max): 32263, 32394
  Pulay-stress correction: 0.000000 eV/Ang^3 (de/decut=0.000000)
  Using FFTW library
  ScaLapack parameters: grid=1x1, blocksize=None
  Wavefunction extrapolation:
    Improved wavefunction reuse through dual PAW basis

Eigensolver
   Davidson(niter=2, smin=None, normalize=True)

Densities:
  Coarse grid: 40*40*160 grid
  Fine grid: 80*80*320 grid
  Total Charge: 0.000000

Density mixing:
  Method: separate
  Backend: pulay
  Linear mixing parameter: 0.05
  Mixing with 5 old densities
  Damping of long wave oscillations: 50

Hamiltonian:
  XC and Coulomb potentials evaluated on a 80*80*320 grid
  Using the PBE Exchange-Correlation functional

XC parameters: PBE with 2 nearest neighbor stencil

Total number of cores used: 32
Parallelization over k-points: 8
Domain decomposition: 1 x 1 x 4
                      2 x 2 x 8 (xc only)

Number of atoms: 65
Number of atomic orbitals: 260
Number of bands in calculation: 82
Number of valence electrons: 129
Bands to converge: occupied

... initialized

Initializing position-dependent things.

Density initialized from atomic densities
Creating initial wave functions:
  82 bands from LCAO basis set

           Li   Li Li
              N   Li   N  Li
             Li      Li
              LiN   Li LiN  Li

           Li   Li Li    Li
              N   Li   N  Li
             Li      Li
              LiN   Li LiN  Li

           Li N Li Li  N Li
                  Li      Li
             Li N    Li  N
              Li    Li Li   Li

[...]

                Li       Li

Positions:
   0 Li     1.753189    1.012426    1.530029    ( 0.0000,  0.0000,  0.0000)
   1 Li    -0.000191    4.049369    1.530029    ( 0.0000,  0.0000,  0.0000)
   2 Li     5.259899    1.012426    1.530029    ( 0.0000,  0.0000,  0.0000)
   3 Li     3.506519    4.049369    1.530029    ( 0.0000,  0.0000,  0.0000)
   4 Li     1.753084    1.012487   13.291285    ( 0.0000,  0.0000,  0.0000)
   5 Li    -0.000296    4.049430   13.291285    ( 0.0000,  0.0000,  0.0000)
   6 Li     5.259794    1.012487   13.291285    ( 0.0000,  0.0000,  0.0000)
   7 Li     3.506414    4.049430   13.291285    ( 0.0000,  0.0000,  0.0000)
   8 Li     3.506412    0.000213   15.411652    ( 0.0000,  0.0000,  0.0000)
   9 Li     1.753032    3.037156   15.411652    ( 0.0000,  0.0000,  0.0000)
  10 Li     7.013122    0.000213   15.411652    ( 0.0000,  0.0000,  0.0000)
  11 Li     5.259742    3.037156   15.411652    ( 0.0000,  0.0000,  0.0000)
  12 Li    -0.000315    2.024821   15.411652    ( 0.0000,  0.0000,  0.0000)
  13 Li    -1.753695    5.061764   15.411652    ( 0.0000,  0.0000,  0.0000)
  14 Li     3.506395    2.024821   15.411652    ( 0.0000,  0.0000,  0.0000)
  15 Li     1.753015    5.061764   15.411652    ( 0.0000,  0.0000,  0.0000)
  16 Li     3.506465    0.000182    3.465092    ( 0.0000,  0.0000,  0.0000)
  17 Li     1.753085    3.037125    3.465092    ( 0.0000,  0.0000,  0.0000)
  18 Li     7.013175    0.000182    3.465092    ( 0.0000,  0.0000,  0.0000)
  19 Li     5.259795    3.037125    3.465092    ( 0.0000,  0.0000,  0.0000)
  20 Li    -0.000262    2.024791    3.465092    ( 0.0000,  0.0000,  0.0000)
  21 Li    -1.753642    5.061734    3.465092    ( 0.0000,  0.0000,  0.0000)
  22 Li     3.506448    2.024791    3.465092    ( 0.0000,  0.0000,  0.0000)
  23 Li     1.753068    5.061734    3.465092    ( 0.0000,  0.0000,  0.0000)
  24 Li     1.753084    1.012487    5.431887    ( 0.0000,  0.0000,  0.0000)
  25 Li    -0.000296    4.049430    5.431887    ( 0.0000,  0.0000,  0.0000)
  26 Li     5.259794    1.012487    5.431887    ( 0.0000,  0.0000,  0.0000)
  27 Li     3.506414    4.049430    5.431887    ( 0.0000,  0.0000,  0.0000)
  28 Li     3.506429    0.000182    7.378027    ( 0.0000,  0.0000,  0.0000)
  29 Li     1.753049    3.037125    7.378027    ( 0.0000,  0.0000,  0.0000)
  30 Li     7.013139    0.000182    7.378027    ( 0.0000,  0.0000,  0.0000)
  31 Li     5.259759    3.037125    7.378027    ( 0.0000,  0.0000,  0.0000)
  32 Li    -0.000297    2.024791    7.378027    ( 0.0000,  0.0000,  0.0000)
  33 Li    -1.753677    5.061734    7.378027    ( 0.0000,  0.0000,  0.0000)
  34 Li     3.506413    2.024791    7.378027    ( 0.0000,  0.0000,  0.0000)
  35 Li     1.753033    5.061734    7.378027    ( 0.0000,  0.0000,  0.0000)
  36 Li     1.753084    1.012487    9.352306    ( 0.0000,  0.0000,  0.0000)
  37 Li    -0.000296    4.049430    9.352306    ( 0.0000,  0.0000,  0.0000)
  38 Li     5.259794    1.012487    9.352306    ( 0.0000,  0.0000,  0.0000)
  39 Li     3.506414    4.049430    9.352306    ( 0.0000,  0.0000,  0.0000)
  40 Li     3.506429    0.000182   11.319700    ( 0.0000,  0.0000,  0.0000)
  41 Li     1.753049    3.037125   11.319700    ( 0.0000,  0.0000,  0.0000)
  42 Li     7.013139    0.000182   11.319700    ( 0.0000,  0.0000,  0.0000)
  43 Li     5.259759    3.037125   11.319700    ( 0.0000,  0.0000,  0.0000)
  44 Li    -0.000297    2.024791   11.319700    ( 0.0000,  0.0000,  0.0000)
  45 Li    -1.753677    5.061734   11.319700    ( 0.0000,  0.0000,  0.0000)
  46 Li     3.506413    2.024791   11.319700    ( 0.0000,  0.0000,  0.0000)
  47 Li     1.753033    5.061734   11.319700    ( 0.0000,  0.0000,  0.0000)
  48 N      1.753084    1.012487    3.439048    ( 0.0000,  0.0000,  0.0000)
  49 N     -0.000296    4.049430    3.439048    ( 0.0000,  0.0000,  0.0000)
  50 N      5.259794    1.012487    3.439048    ( 0.0000,  0.0000,  0.0000)
  51 N      3.506414    4.049430    3.439048    ( 0.0000,  0.0000,  0.0000)
  52 N      1.753031    1.012517    7.360963    ( 0.0000,  0.0000,  0.0000)
  53 N     -0.000349    4.049460    7.360963    ( 0.0000,  0.0000,  0.0000)
  54 N      5.259741    1.012517    7.360963    ( 0.0000,  0.0000,  0.0000)
  55 N      3.506361    4.049460    7.360963    ( 0.0000,  0.0000,  0.0000)
  56 N      1.753031    1.012517   11.296051    ( 0.0000,  0.0000,  0.0000)
  57 N     -0.000349    4.049460   11.296051    ( 0.0000,  0.0000,  0.0000)
  58 N      5.259741    1.012517   11.296051    ( 0.0000,  0.0000,  0.0000)
  59 N      3.506361    4.049460   11.296051    ( 0.0000,  0.0000,  0.0000)
  60 N      1.753031    1.012517   15.214673    ( 0.0000,  0.0000,  0.0000)
  61 N     -0.000349    4.049460   15.214673    ( 0.0000,  0.0000,  0.0000)
  62 N      5.259741    1.012517   15.214673    ( 0.0000,  0.0000,  0.0000)
  63 N      3.506361    4.049460   15.214673    ( 0.0000,  0.0000,  0.0000)
  64 Li     1.740109    0.989564   17.211734    ( 0.0000,  0.0000,  0.0000)

Unit cell:
           periodic     x           y           z      points  spacing
  1. axis:    yes    7.013420    0.000000    0.000000    40     0.1518
  2. axis:    yes   -3.506760    6.073886    0.000000    40     0.1518
  3. axis:    yes    0.000000    0.000000   29.936001   160     0.1871

  Lengths:   7.013420   7.013520  29.936001
  Angles:   90.000000  90.000000 120.000000

Effective grid spacing dv^(1/3) = 0.1708

                     log10-error:    total        iterations:
           time      wfs    density  energy       fermi  poisson
iter:   1  19:48:38                -275.645977    4
iter:   2  19:48:56  -0.99  -0.51  -263.043166    5
iter:   3  19:49:14  -0.41  -0.56  -276.176414    33
iter:   4  19:49:32  -1.88  -0.53  -251.528303    30
iter:   5  19:49:50  -2.70  -0.71  -249.395806    3
iter:   6  19:50:08  -1.39  -0.72  -245.393690    5
iter:   7  19:50:26  -1.31  -0.78  -239.097207    30
iter:   8  19:50:44  -1.69  -0.89  -237.704848    34
iter:   9  19:51:02  -2.18  -0.96  -237.018628    34
iter:  10  19:51:20  -1.93  -0.94  -243.169141    35
iter:  11  19:51:38  -1.67  -0.79  -238.859605    32
iter:  12  19:51:53  -1.71  -0.93  -237.060874    4
iter:  13  19:52:11  -2.37  -1.33  -235.751778    5
iter:  14  19:52:29  -3.08  -1.50  -235.538691    3
[...]
iter:  19  19:53:59  -3.25  -1.61  -234.347778    4
iter:  20  19:54:17  -3.96  -1.60  -234.282120    4
iter:  21  19:54:35  -3.47  -1.67  -234.432264    5
iter:  22  19:54:53  -3.10  -1.79  -234.330793    5
iter:  23  19:55:11  -3.84  -1.83  -234.387460    3
iter:  24  19:55:29  -3.88  -1.80  -234.264952    4
iter:  25  19:55:47  -4.48  -2.36  -234.267150    3
iter:  26  19:56:05  -4.36  -2.19  -234.268381    3
iter:  27  19:56:23  -5.09  -2.51  -234.266121    3
iter:  28  19:56:41  -4.78  -2.58  -234.260567    3
iter:  29  19:56:59  -4.72  -2.63  -234.264900    3
iter:  30  19:57:17  -5.94  -2.95  -234.264940    2
iter:  31  19:57:35  -6.25  -2.99  -234.264577    2
iter:  32  19:57:53  -5.88  -3.06  -234.263650    2
iter:  33  19:58:11  -6.83  -3.17  -234.263758    2
iter:  34  19:58:30  -5.72  -3.23  -234.262140    3
iter:  35  19:58:48  -6.02  -3.23  -234.263668    3
iter:  36  19:59:06  -6.68  -3.43  -234.262879    2
iter:  37  19:59:24  -6.41  -3.59  -234.263228    2
iter:  38  19:59:42  -7.59  -3.61  -234.263187    1
iter:  39  20:00:00  -6.52  -3.67  -234.262850    2
iter:  40  20:00:18  -7.00  -3.76  -234.262976    2
iter:  41  20:00:36  -8.40  -3.94  -234.263148    2
iter:  42  20:00:54  -7.62  -3.94  -234.262920    2
iter:  43  20:01:12  -7.73  -3.96  -234.262985    2
iter:  44  20:01:30  -8.11  -4.14  -234.263008    2

Converged after 44 iterations.

Dipole moment: (-2.508240, 0.041895, -11.347613) |e|*Ang

Energy contributions relative to reference atoms: (reference = -33644.147259)

Kinetic:       +260.639697
Potential:     -191.988283
External:        +0.000000
XC:            -301.585125
Entropy (-ST):   -0.090850
Local:           -1.283872
Free energy:   -234.308433
Extrapolated:  -234.263008

Fermi level: -0.28211

Showing only first 2 kpts
 Kpt  Band  Eigenvalues  Occupancy
  0    62     -0.41974    0.07520
  0    63     -0.09489    0.00185
  0    64     -0.09485    0.00185
  0    65      0.22624    0.00000

  1    62     -0.45663    0.15527
  1    63     -0.34508    0.12463
  1    64     -0.21492    0.03310
  1    65      0.36285    0.00000

No gap

Forces in eV/Ang:
  0 Li   -0.00007    0.00005   -0.03708
  1 Li   -0.00007    0.00005   -0.03706
  2 Li   -0.00007    0.00005   -0.03706
  3 Li   -0.00007    0.00005   -0.03706
  4 Li   -0.00032   -0.00047    0.02308
  5 Li   -0.00062    0.00030    0.02900
  6 Li    0.00043   -0.00034    0.02900
  7 Li    0.00045    0.00089    0.02901
  8 Li    0.28655   -0.16249   -0.37666
  9 Li    0.00117    0.31953   -0.36036
 10 Li   -0.29448   -0.16843   -0.39308
 11 Li    0.00039    0.00062   -0.04974
 12 Li   -0.28384    0.16691   -0.37627
 13 Li    0.00131   -0.33922   -0.39325
 14 Li    0.27620    0.16100   -0.36057
 15 Li    0.00030    0.00078   -0.04974
 16 Li    0.00007   -0.00015   -0.03450
 17 Li    0.00001   -0.00004   -0.03450
 18 Li   -0.00006   -0.00015   -0.03450
 19 Li    0.00001   -0.00012   -0.03441
 20 Li   -0.00014    0.00011   -0.03450
 21 Li   -0.00007   -0.00000   -0.03450
 22 Li   -0.00001    0.00011   -0.03450
 23 Li   -0.00007    0.00007   -0.03441
 24 Li   -0.00002    0.00001   -0.02812
 25 Li   -0.00002    0.00001   -0.02786
 26 Li   -0.00002    0.00001   -0.02786
 27 Li   -0.00002    0.00001   -0.02786
 28 Li    0.00079   -0.00048    0.01369
 29 Li   -0.00007    0.00101    0.01369
 30 Li   -0.00093   -0.00048    0.01368
 31 Li   -0.00007    0.00001    0.01472
 32 Li   -0.00102    0.00070    0.01369
 33 Li   -0.00015   -0.00080    0.01368
 34 Li    0.00071    0.00070    0.01369
 35 Li   -0.00015    0.00020    0.01472
 36 Li   -0.00004    0.00006    0.00493
 37 Li   -0.00004    0.00001    0.00752
 38 Li   -0.00008    0.00003    0.00752
 39 Li   -0.00008   -0.00002    0.00752
 40 Li    0.01144   -0.00666   -0.02947
 41 Li   -0.00009    0.01332   -0.02972
 42 Li   -0.01159   -0.00665   -0.02924
 43 Li   -0.00007    0.00002   -0.01434
 44 Li   -0.01169    0.00683   -0.02948
 45 Li   -0.00016   -0.01310   -0.02923
 46 Li    0.01138    0.00684   -0.02971
 47 Li   -0.00015    0.00021   -0.01434
 48 N    -0.00018    0.00017    0.04721
 49 N    -0.00018    0.00017    0.04698
 50 N    -0.00018    0.00017    0.04698
 51 N    -0.00018    0.00017    0.04698
 52 N    -0.00005   -0.00005    0.04282
 53 N    -0.00005   -0.00004    0.03632
 54 N    -0.00004   -0.00005    0.03633
 55 N    -0.00004   -0.00004    0.03633
 56 N     0.00009    0.00019    0.08510
 57 N     0.00010   -0.00014    0.01861
 58 N    -0.00018    0.00002    0.01860
 59 N    -0.00018   -0.00030    0.01862
 60 N    -0.00902   -0.01551    1.76722
 61 N    -0.00290    0.00400    0.24661
 62 N     0.00432   -0.00028    0.24662
 63 N     0.00442    0.00812    0.24683
 64 Li    0.01433    0.02542   -0.40468

System changes: positions

[...]

Density initialized from wave functions

[...]

          Li    Li Li
              N   Li   N  Li
             Li      Li
              LiN   Li LiN  Li

           Li   Li Li    Li
              N   Li   N  Li
             Li      Li
              LiN   Li LiN  Li

[...]

                   Li
          Li    Li
              N   Li   N  Li
             Li       Li
              LiN      LiN
                    Li      Li
           Li   Li Li    Li
              N   Li   N  Li
             Li N    Li
              Li    Li LiN  Li

           Li N Li Li  N Li
                  Li      Li
             Li N    Li  N
              Li    Li Li   Li
           Li      Li
              N Li     N Li
             Li   Li Li   Li
                N        N
              Li    Li Li   Li

[...]

                   Li
          Li    Li
              N   Li   N  Li
             Li       Li
              LiN      LiN
                    Li      Li
           Li   Li Li    Li
              N   Li   N  Li
             Li N    Li
              Li    Li LiN  Li

[...]

                   Li
          Li    Li        Li
              N   Li   N
             Li      Li
              LiN   Li LiN  Li

[...]

           Li N Li Li  N Li
                  Li      Li
             Li      Li
              LiN   Li LiN  Li

[...]

           Li N Li Li  N Li
                  Li      Li
             Li      Li  N
              LiN   Li Li   Li

[...]

                   Li
          Li  N Li     N  Li
                  Li
             Li       Li N
              LiN   Li Li   Li

[...]

                   Li
          Li  N Li        Li
                  Li   N
             Li       Li N
              LiN   Li Li   Li

[...]

                   Li
          Li    Li        Li
              N   Li   N
             Li       Li
              LiN   Li LiN  Li

[...]

           Li N Li Li  N Li
                  Li      Li
             Li N    Li  N
              Li    Li Li   Li

[...]

System changes: positions

Initializing position-dependent things.

Density initialized from wave functions

                   Li
          Li  N Li     N  Li
                  Li
             Li       Li N
              LiN   Li Li   Li

           Li N Li Li  N Li
                  Li      Li
             Li      Li  N
              LiN   Li Li   Li

           Li N Li Li  N Li
                  Li      Li
             Li N    Li  N
              Li    Li Li   Li
           Li      Li
              N Li     N Li
             Li   Li Li   Li
                N        N
              Li    Li Li   Li

                Li       Li

Positions:
   0 Li     1.753189    1.012426    1.530029    ( 0.0000,  0.0000,  0.0000)
   1 Li    -0.000191    4.049369    1.530029    ( 0.0000,  0.0000,  0.0000)
   2 Li     5.259899    1.012426    1.530029    ( 0.0000,  0.0000,  0.0000)
   3 Li     3.506519    4.049369    1.530029    ( 0.0000,  0.0000,  0.0000)
   4 Li     1.755351    1.018379   13.171144    ( 0.0000,  0.0000,  0.0000)
   5 Li     0.003635    4.048314   13.306384    ( 0.0000,  0.0000,  0.0000)
   6 Li     5.255783    1.016279   13.306366    ( 0.0000,  0.0000,  0.0000)
   7 Li     3.502139    4.043882   13.306383    ( 0.0000,  0.0000,  0.0000)
   8 Li     3.581066   -0.042217   15.120381    ( 0.0000,  0.0000,  0.0000)
   9 Li     1.752482    3.122924   15.131024    ( 0.0000,  0.0000,  0.0000)
  10 Li     6.935788   -0.043132   15.110632    ( 0.0000,  0.0000,  0.0000)
  11 Li     5.260393    3.040379   16.096560    ( 0.0000,  0.0000,  0.0000)
  12 Li    -0.075881    2.069131   15.121161    ( 0.0000,  0.0000,  0.0000)
  13 Li    -1.754214    4.974010   15.110283    ( 0.0000,  0.0000,  0.0000)
  14 Li     3.579380    2.068242   15.130616    ( 0.0000,  0.0000,  0.0000)
  15 Li     1.753704    5.064969   16.096566    ( 0.0000,  0.0000,  0.0000)
  16 Li     3.506465    0.000182    3.465092    ( 0.0000,  0.0000,  0.0000)
  17 Li     1.753085    3.037125    3.465092    ( 0.0000,  0.0000,  0.0000)
  18 Li     7.013175    0.000182    3.465092    ( 0.0000,  0.0000,  0.0000)
  19 Li     5.259795    3.037125    3.465092    ( 0.0000,  0.0000,  0.0000)
  20 Li    -0.000262    2.024791    3.465092    ( 0.0000,  0.0000,  0.0000)
  21 Li    -1.753642    5.061734    3.465092    ( 0.0000,  0.0000,  0.0000)
  22 Li     3.506448    2.024791    3.465092    ( 0.0000,  0.0000,  0.0000)
  23 Li     1.753068    5.061734    3.465092    ( 0.0000,  0.0000,  0.0000)
  24 Li     1.753084    1.012487    5.431887    ( 0.0000,  0.0000,  0.0000)
  25 Li    -0.000296    4.049430    5.431887    ( 0.0000,  0.0000,  0.0000)
  26 Li     5.259794    1.012487    5.431887    ( 0.0000,  0.0000,  0.0000)
  27 Li     3.506414    4.049430    5.431887    ( 0.0000,  0.0000,  0.0000)
  28 Li     3.506429    0.000182    7.378027    ( 0.0000,  0.0000,  0.0000)
  29 Li     1.753049    3.037125    7.378027    ( 0.0000,  0.0000,  0.0000)
  30 Li     7.013139    0.000182    7.378027    ( 0.0000,  0.0000,  0.0000)
  31 Li     5.259759    3.037125    7.378027    ( 0.0000,  0.0000,  0.0000)
  32 Li    -0.000297    2.024791    7.378027    ( 0.0000,  0.0000,  0.0000)
  33 Li    -1.753677    5.061734    7.378027    ( 0.0000,  0.0000,  0.0000)
  34 Li     3.506413    2.024791    7.378027    ( 0.0000,  0.0000,  0.0000)
  35 Li     1.753033    5.061734    7.378027    ( 0.0000,  0.0000,  0.0000)
  36 Li     1.753586    1.014078    9.313705    ( 0.0000,  0.0000,  0.0000)
  37 Li    -0.000000    4.049304    9.353577    ( 0.0000,  0.0000,  0.0000)
  38 Li     5.258847    1.012996    9.353567    ( 0.0000,  0.0000,  0.0000)
  39 Li     3.505534    4.048548    9.353559    ( 0.0000,  0.0000,  0.0000)
  40 Li     3.509157   -0.001333   11.267509    ( 0.0000,  0.0000,  0.0000)
  41 Li     1.752455    3.041797   11.266576    ( 0.0000,  0.0000,  0.0000)
  42 Li     7.009565   -0.001135   11.268104    ( 0.0000,  0.0000,  0.0000)
  43 Li     5.259541    3.038212   11.400256    ( 0.0000,  0.0000,  0.0000)
  44 Li    -0.004242    2.027141   11.267369    ( 0.0000,  0.0000,  0.0000)
  45 Li    -1.754277    5.058728   11.268208    ( 0.0000,  0.0000,  0.0000)
  46 Li     3.509499    2.027338   11.266619    ( 0.0000,  0.0000,  0.0000)
  47 Li     1.752804    5.062838   11.400270    ( 0.0000,  0.0000,  0.0000)
  48 N      1.753084    1.012487    3.439048    ( 0.0000,  0.0000,  0.0000)
  49 N     -0.000296    4.049430    3.439048    ( 0.0000,  0.0000,  0.0000)
  50 N      5.259794    1.012487    3.439048    ( 0.0000,  0.0000,  0.0000)
  51 N      3.506414    4.049430    3.439048    ( 0.0000,  0.0000,  0.0000)
  52 N      1.753031    1.012517    7.360963    ( 0.0000,  0.0000,  0.0000)
  53 N     -0.000349    4.049460    7.360963    ( 0.0000,  0.0000,  0.0000)
  54 N      5.259741    1.012517    7.360963    ( 0.0000,  0.0000,  0.0000)
  55 N      3.506361    4.049460    7.360963    ( 0.0000,  0.0000,  0.0000)
  56 N      1.752807    1.013601   11.221644    ( 0.0000,  0.0000,  0.0000)
  57 N     -0.000482    4.050016   11.307643    ( 0.0000,  0.0000,  0.0000)
  58 N      5.259051    1.013409   11.307628    ( 0.0000,  0.0000,  0.0000)
  59 N      3.505658    4.049701   11.307626    ( 0.0000,  0.0000,  0.0000)
  60 N      1.752214    1.013039   15.077173    ( 0.0000,  0.0000,  0.0000)
  61 N     -0.000344    4.051505   15.292003    ( 0.0000,  0.0000,  0.0000)
  62 N      5.259765    1.014586   15.291990    ( 0.0000,  0.0000,  0.0000)
  63 N      3.506368    4.051526   15.292055    ( 0.0000,  0.0000,  0.0000)
  64 Li     1.735976    0.982412   16.924697    ( 0.0000,  0.0000,  0.0000)

Unit cell:
           periodic     x           y           z      points  spacing
  1. axis:    yes    7.013420    0.000000    0.000000    40     0.1518
  2. axis:    yes   -3.506760    6.073886    0.000000    40     0.1518
  3. axis:    yes    0.000000    0.000000   29.936001   160     0.1871

  Lengths:   7.013420   7.013520  29.936001
  Angles:   90.000000  90.000000 120.000000

Effective grid spacing dv^(1/3) = 0.1708

                     log10-error:    total        iterations:
           time      wfs    density  energy       fermi  poisson
iter:   1  22:53:00  -4.55         -234.902301    3
iter:   2  22:53:18  -4.16  -2.36  -234.978812    4
iter:   3  22:53:36  -4.78  -2.18  -234.905408    3
iter:   4  22:53:54  -4.91  -2.69  -234.895303    3
iter:   5  22:54:13  -5.58  -2.75  -234.899564    2
iter:   6  22:54:31  -6.55  -3.05  -234.898568    2
iter:   7  22:54:49  -6.95  -3.19  -234.897018    2
iter:   8  22:55:07  -7.08  -3.74  -234.896609    2
iter:   9  22:55:25  -7.18  -4.11  -234.896804    2

Converged after 9 iterations.

Dipole moment: (-2.011758, 0.867139, -11.330674) |e|*Ang

Energy contributions relative to reference atoms: (reference = -33644.147259)

Kinetic:       +256.389829
Potential:     -189.808636
External:        +0.000000
XC:            -300.157021
Entropy (-ST):   -0.076004
Local:           -1.282975
Free energy:   -234.934806
Extrapolated:  -234.896804

Fermi level: -0.19773

Showing only first 2 kpts
 Kpt  Band  Eigenvalues  Occupancy
  0    62     -0.55979    0.07994
  0    63      0.02097    0.00100
  0    64      0.02103    0.00099
  0    65      0.23073    0.00002

  1    62     -0.63590    0.15997
  1    63     -0.26116    0.12488
  1    64     -0.08466    0.01510
  1    65      0.41586    0.00000

No gap

Forces in eV/Ang:
  0 Li   -0.00007    0.00005   -0.05378
  1 Li   -0.00007    0.00005   -0.05398
  2 Li   -0.00007    0.00005   -0.05398
  3 Li   -0.00007    0.00005   -0.05398
  4 Li   -0.00196   -0.00314    0.01820
  5 Li    0.00041    0.00149   -0.00384
  6 Li    0.00096    0.00118   -0.00385
  7 Li    0.00096    0.00181   -0.00378
  8 Li   -0.00366    0.00264    0.00432
  9 Li    0.00015   -0.00529    0.00495
 10 Li    0.00284    0.00202    0.00382
 11 Li    0.00253    0.00476    0.01465
 12 Li    0.00401   -0.00178    0.00442
 13 Li    0.00013    0.00351    0.00375
 14 Li   -0.00482   -0.00239    0.00492
 15 Li    0.00251    0.00478    0.01465
 16 Li   -0.00003   -0.00010   -0.04360
 17 Li    0.00001   -0.00016   -0.04358
 18 Li    0.00005   -0.00010   -0.04363
 19 Li    0.00001   -0.00011   -0.04352
 20 Li   -0.00004    0.00005   -0.04360
 21 Li   -0.00008    0.00012   -0.04362
 22 Li   -0.00011    0.00005   -0.04358
 23 Li   -0.00007    0.00008   -0.04352
 24 Li    0.00005    0.00011   -0.06208
 25 Li    0.00005   -0.00003   -0.05431
 26 Li   -0.00008    0.00004   -0.05431
 27 Li   -0.00007   -0.00011   -0.05431
 28 Li    0.00418   -0.00274    0.00012
 29 Li   -0.00030    0.00544   -0.00138
 30 Li   -0.00442   -0.00254    0.00171
 31 Li   -0.00003    0.00024    0.00960
 32 Li   -0.00487    0.00262    0.00019
 33 Li   -0.00037   -0.00472    0.00168
 34 Li    0.00447    0.00282   -0.00142
 35 Li   -0.00012    0.00043    0.00959
 36 Li   -0.00235   -0.00415   -0.02863
 37 Li   -0.00202    0.00160   -0.00432
 38 Li    0.00232   -0.00089   -0.00431
 39 Li    0.00231    0.00411   -0.00428
 40 Li   -0.00950    0.00608    0.01167
 41 Li    0.00020   -0.01129    0.00852
 42 Li    0.00943    0.00580    0.01471
 43 Li   -0.00034   -0.00047    0.00576
 44 Li    0.00993   -0.00515    0.01160
 45 Li    0.00022    0.01110    0.01475
 46 Li   -0.00997   -0.00544    0.00858
 47 Li   -0.00031   -0.00050    0.00576
 48 N    -0.00021    0.00015    0.08542
 49 N    -0.00021    0.00019    0.09702
 50 N    -0.00016    0.00016    0.09701
 51 N    -0.00016    0.00022    0.09702
 52 N     0.00052    0.00103   -0.05582
 53 N     0.00037   -0.00029    0.09180
 54 N    -0.00069    0.00025    0.09178
 55 N    -0.00063   -0.00093    0.09177
 56 N    -0.00028   -0.00036   -0.00624
 57 N     0.00018    0.00022    0.00767
 58 N     0.00002    0.00033    0.00766
 59 N     0.00001    0.00013    0.00774
 60 N    -0.00026   -0.00042    0.03013
 61 N    -0.00206   -0.00360   -0.00462
 62 N    -0.00214   -0.00371   -0.00466
 63 N    -0.00203   -0.00366   -0.00458
 64 Li   -0.00174   -0.00322   -0.01401

Date: Mon Sep  6 22:55:35 2021