User:   jngwng01@n716022
Date:   Wed Sep  8 21:30:20 2021
Arch:   x86_64
Pid:    12686
Python: 3.8.5
gpaw:   /uls/7/gpaw-20.1.0/lib/python3.8/site-packages/gpaw-20.1.0-py3.8-linux-x86_64.egg/gpaw
_gpaw:  /uls/7/gpaw-20.1.0/lib/python3.8/site-packages/gpaw-20.1.0-py3.8-linux-x86_64.egg/
        _gpaw.cpython-38-x86_64-linux-gnu.so
ase:    /uls/7/gpaw-20.1.0/lib/python3.8/site-packages/ase-3.20.1-py3.8.egg/ase (version 3.20.1)
numpy:  /uls/7/gpaw-20.1.0/lib/python3.8/site-packages/numpy (version 1.19.2)
scipy:  /uls/7/gpaw-20.1.0/lib/python3.8/site-packages/scipy-1.5.2-py3.8-linux-x86_64.egg/scipy (version 1.5.2)
units:  Angstrom and eV
cores: 64
OMP_NUM_THREADS: 1

Input parameters:
  convergence: {eigenstates: 1e-08}
  kpts: [3 3 1]
  mode: {ecut: 500.0,
         gammacentered: False,
         name: pw}
  occupations: {name: fermi-dirac,
                width: 0.02}
  random: True
  xc: PBE

System changes: positions, numbers, cell, pbc, initial_charges, initial_magmoms

Initialize ...

Li-setup:
  name: Lithium
  id: 830b4218f175192f93f959cfc0aad614
  Z: 3
  valence: 1
  core: 2
  charge: 0.0
  file: /uls/7/gpaw-20.1.0/setups/gpaw-setups-0.9.20000/Li.PBE.gz
  compensation charges: gauss, rc=0.33, lmax=2
  cutoffs: 1.91(filt), 2.55(core),
  valence states:
                energy  radius
    2s(1.00)    -2.874   1.058
    2p(0.00)    -1.090   1.058
    *s          24.337   1.058

  Using partial waves for Li as LCAO basis

N-setup:
  name: Nitrogen
  id: f7500608b86eaa90eef8b1d9a670dc53
  Z: 7
  valence: 5
  core: 2
  charge: 0.0
  file: /uls/7/gpaw-20.1.0/setups/gpaw-setups-0.9.20000/N.PBE.gz
  compensation charges: gauss, rc=0.18, lmax=2
  cutoffs: 1.11(filt), 0.96(core),
  valence states:
                energy  radius
    2s(2.00)   -18.583   0.603
    2p(3.00)    -7.089   0.529
    *s           8.629   0.603
    *p          20.123   0.529
    *d           0.000   0.577

  Using partial waves for N as LCAO basis

Reference energy: -75445.846558

Spin-paired calculation

Occupation numbers:
  Fermi-Dirac: width=0.0200 eV

Convergence criteria:
  Maximum total energy change: 0.0005 eV / electron
  Maximum integral of absolute density change: 0.0001 electrons
  Maximum integral of absolute eigenstate change: 1e-08 eV^2
  Maximum number of iterations: 333

Symmetries present (total): 1

  ( 1  0  0)
  ( 0  1  0)
  ( 0  0  1)

9 k-points: 3 x 3 x 1 Monkhorst-Pack grid
5 k-points in the irreducible part of the Brillouin zone
       k-points in crystal coordinates                weights
   0:     0.00000000    0.00000000    0.00000000          1/9
   1:     0.00000000    0.33333333    0.00000000          2/9
   2:     0.33333333   -0.33333333    0.00000000          2/9
   3:     0.33333333    0.00000000    0.00000000          2/9
   4:     0.33333333    0.33333333    0.00000000          2/9

Wave functions: Plane wave expansion
  Cutoff energy: 500.000 eV
  Number of coefficients (min, max): 69207, 69295
  Pulay-stress correction: 0.000000 eV/Ang^3 (de/decut=0.000000)
  Using FFTW library
  ScaLapack parameters: grid=1x1, blocksize=None
  Wavefunction extrapolation:
    Improved wavefunction reuse through dual PAW basis

Eigensolver
   Davidson(niter=2, smin=None, normalize=True)

Densities:
  Coarse grid: 54*54*160 grid
  Fine grid: 108*108*320 grid
  Total Charge: 0.000000

Density mixing:
  Method: separate
  Backend: pulay
  Linear mixing parameter: 0.05
  Mixing with 5 old densities
  Damping of long wave oscillations: 50

Hamiltonian:
  XC and Coulomb potentials evaluated on a 108*108*320 grid
  Using the PBE Exchange-Correlation functional

XC parameters: PBE with 2 nearest neighbor stencil

Total number of cores used: 64
Domain decomposition: 2 x 4 x 8

Number of atoms: 145
Number of atomic orbitals: 580
Number of bands in calculation: 178
Number of valence electrons: 289
Bands to converge: occupied

... initialized

Initializing position-dependent things.

Density initialized from atomic densities
Creating initial wave functions:
  178 bands from LCAO basis set

                         Li
            Li      Li      Li
           Li Li   Li LiN  Li  Li
                  N       N       N
             LiLiLi  Li LLi   LiLLi
               Li   N   Li   N  Li   N
            Li N  LiLi  N LiLi  N Li
           Li Li   LLiLi   LiLiLi    Li
                  N       N       N
             LiLiLi  Li LLi   LiLLi
               Li LiN   LiLi N  LiLi N
            Li N    Li  N   Li  N
           Li Li   LLiLi   LiLiLi    Li
             Li   N  Li   N   Li  N
               LiLi     LLi     LLi
            Li Li LiNi  LiLiLN  LiLi N
               N        N       N
           Li Li   LLiLi   LiLiLi    Li
             LiLi N  Li LiN   LiLiN
                 Li N    Li  N   Li  N
               Li Li    LiLi    LiLi

                    Li       Li      Li

Positions:
   0 Li     2.569983    5.495817   24.275296    ( 0.0000,  0.0000,  0.0000)
   1 Li     1.717695    0.991763    8.714294    ( 0.0000,  0.0000,  0.0000)
   2 Li     5.153197    0.991763    8.714294    ( 0.0000,  0.0000,  0.0000)
   3 Li     8.588596    0.991763    8.714294    ( 0.0000,  0.0000,  0.0000)
   4 Li    -0.000071    3.967140    8.714294    ( 0.0000,  0.0000,  0.0000)
   5 Li     3.435431    3.967140    8.714294    ( 0.0000,  0.0000,  0.0000)
   6 Li     6.870830    3.967140    8.714294    ( 0.0000,  0.0000,  0.0000)
   7 Li    -1.717786    6.942428    8.714294    ( 0.0000,  0.0000,  0.0000)
   8 Li     1.717717    6.942428    8.714294    ( 0.0000,  0.0000,  0.0000)
   9 Li     5.153115    6.942428    8.714294    ( 0.0000,  0.0000,  0.0000)
  10 Li     0.000000    0.000000   10.653504    ( 0.0000,  0.0000,  0.0000)
  11 Li     3.435502    0.000000   10.653504    ( 0.0000,  0.0000,  0.0000)
  12 Li     6.870901    0.000000   10.653504    ( 0.0000,  0.0000,  0.0000)
  13 Li    -0.000010    1.983525   10.653504    ( 0.0000,  0.0000,  0.0000)
  14 Li     3.435389    1.983525   10.653504    ( 0.0000,  0.0000,  0.0000)
  15 Li     6.870891    1.983525   10.653504    ( 0.0000,  0.0000,  0.0000)
  16 Li    -1.717766    2.975377   10.653504    ( 0.0000,  0.0000,  0.0000)
  17 Li     1.717736    2.975377   10.653504    ( 0.0000,  0.0000,  0.0000)
  18 Li     5.153135    2.975377   10.653504    ( 0.0000,  0.0000,  0.0000)
  19 Li    -1.717776    4.958903   10.653504    ( 0.0000,  0.0000,  0.0000)
  20 Li     1.717623    4.958903   10.653504    ( 0.0000,  0.0000,  0.0000)
  21 Li     5.153125    4.958903   10.653504    ( 0.0000,  0.0000,  0.0000)
  22 Li    -3.435480    5.950666   10.653504    ( 0.0000,  0.0000,  0.0000)
  23 Li     0.000022    5.950666   10.653504    ( 0.0000,  0.0000,  0.0000)
  24 Li     3.435421    5.950666   10.653504    ( 0.0000,  0.0000,  0.0000)
  25 Li    -3.435490    7.934191   10.653504    ( 0.0000,  0.0000,  0.0000)
  26 Li    -0.000091    7.934191   10.653504    ( 0.0000,  0.0000,  0.0000)
  27 Li     3.435411    7.934191   10.653504    ( 0.0000,  0.0000,  0.0000)
  28 Li     1.717695    0.991763   12.627088    ( 0.0000,  0.0000,  0.0000)
  29 Li     5.153197    0.991763   12.627088    ( 0.0000,  0.0000,  0.0000)
  30 Li     8.588596    0.991763   12.627088    ( 0.0000,  0.0000,  0.0000)
  31 Li    -0.000071    3.967140   12.627088    ( 0.0000,  0.0000,  0.0000)
  32 Li     3.435431    3.967140   12.627088    ( 0.0000,  0.0000,  0.0000)
  33 Li     6.870830    3.967140   12.627088    ( 0.0000,  0.0000,  0.0000)
  34 Li    -1.717786    6.942428   12.627088    ( 0.0000,  0.0000,  0.0000)
  35 Li     1.717717    6.942428   12.627088    ( 0.0000,  0.0000,  0.0000)
  36 Li     5.153115    6.942428   12.627088    ( 0.0000,  0.0000,  0.0000)
  37 Li     0.000000    0.000000   14.576373    ( 0.0000,  0.0000,  0.0000)
  38 Li     3.435502    0.000000   14.576373    ( 0.0000,  0.0000,  0.0000)
  39 Li     6.870901    0.000000   14.576373    ( 0.0000,  0.0000,  0.0000)
  40 Li    -0.000010    1.983525   14.576373    ( 0.0000,  0.0000,  0.0000)
  41 Li     3.435389    1.983525   14.576373    ( 0.0000,  0.0000,  0.0000)
  42 Li     6.870891    1.983525   14.576373    ( 0.0000,  0.0000,  0.0000)
  43 Li    -1.717766    2.975377   14.576373    ( 0.0000,  0.0000,  0.0000)
  44 Li     1.717736    2.975377   14.576373    ( 0.0000,  0.0000,  0.0000)
  45 Li     5.153135    2.975377   14.576373    ( 0.0000,  0.0000,  0.0000)
  46 Li    -1.717776    4.958903   14.576373    ( 0.0000,  0.0000,  0.0000)
  47 Li     1.717623    4.958903   14.576373    ( 0.0000,  0.0000,  0.0000)
  48 Li     5.153125    4.958903   14.576373    ( 0.0000,  0.0000,  0.0000)
  49 Li    -3.435480    5.950666   14.576373    ( 0.0000,  0.0000,  0.0000)
  50 Li     0.000022    5.950666   14.576373    ( 0.0000,  0.0000,  0.0000)
  51 Li     3.435421    5.950666   14.576373    ( 0.0000,  0.0000,  0.0000)
  52 Li    -3.435490    7.934191   14.576373    ( 0.0000,  0.0000,  0.0000)
  53 Li    -0.000091    7.934191   14.576373    ( 0.0000,  0.0000,  0.0000)
  54 Li     3.435411    7.934191   14.576373    ( 0.0000,  0.0000,  0.0000)
  55 Li     1.717695    0.991763   16.541957    ( 0.0000,  0.0000,  0.0000)
  56 Li     5.153197    0.991763   16.541957    ( 0.0000,  0.0000,  0.0000)
  57 Li     8.588596    0.991763   16.541957    ( 0.0000,  0.0000,  0.0000)
  58 Li    -0.000071    3.967140   16.541957    ( 0.0000,  0.0000,  0.0000)
  59 Li     3.435431    3.967140   16.541957    ( 0.0000,  0.0000,  0.0000)
[...]
 130 N     -0.000071    3.967140   18.477610    ( 0.0000,  0.0000,  0.0000)
 131 N      3.435431    3.967140   18.477610    ( 0.0000,  0.0000,  0.0000)
 132 N      6.870830    3.967140   18.477610    ( 0.0000,  0.0000,  0.0000)
 133 N     -1.717786    6.942428   18.477610    ( 0.0000,  0.0000,  0.0000)
 134 N      1.717717    6.942428   18.477610    ( 0.0000,  0.0000,  0.0000)
 135 N      5.153115    6.942428   18.477610    ( 0.0000,  0.0000,  0.0000)
 136 N      1.717695    0.991763   22.371735    ( 0.0000,  0.0000,  0.0000)
 137 N      5.153197    0.991763   22.371735    ( 0.0000,  0.0000,  0.0000)
 138 N      8.588596    0.991763   22.371735    ( 0.0000,  0.0000,  0.0000)
 139 N     -0.000071    3.967140   22.371735    ( 0.0000,  0.0000,  0.0000)
 140 N      3.435431    3.967140   22.371735    ( 0.0000,  0.0000,  0.0000)
 141 N      6.870830    3.967140   22.371735    ( 0.0000,  0.0000,  0.0000)
 142 N     -1.717786    6.942428   22.371735    ( 0.0000,  0.0000,  0.0000)
 143 N      1.717717    6.942428   22.371735    ( 0.0000,  0.0000,  0.0000)
 144 N      5.153115    6.942428   22.371735    ( 0.0000,  0.0000,  0.0000)

Unit cell:
           periodic     x           y           z      points  spacing
  1. axis:    yes   10.306300    0.000000    0.000000    54     0.1653
  2. axis:    yes   -5.153194    8.925954    0.000000    54     0.1653
  3. axis:    yes    0.000000    0.000000   29.633400   160     0.1852

  Lengths:  10.306300  10.306700  29.633400
  Angles:   90.000000  90.000000 119.999001

Effective grid spacing dv^(1/3) = 0.1801

                     log10-error:    total        iterations:
           time      wfs    density  energy       fermi  poisson
iter:   1  21:31:24                -615.865319    3
[...]
            Li  LiLiNi    LiLN  LiLi N
               N        Li      N
           Li Li   LLi Li  LiLiLi    Li
             LiLi N  Li LiN   LiLiN
                 Li N    Li  N   Li  N
            Li Li LiLi  LiLiLi  LiLi
           Li  N   Li   N  Li   N
              Li    Li Li    LiLi    Li
             LiLi N  Li LiN   LiLiN
                 Li N    Li  N   Li  N
               Li Li    LiLi    LiLi

[...]

            Li      Li   Li  Li
               N   Li   N      Li
           Li Li            Li
             Li   N  LiiLiN   Li  N
                LLi      Li     Li
            Li  Lii Ni    LiLN  LiLi N
               N      LLi       N
           Li Li   LLi     LiLiLi    Li
             Li   N     LiN       N
               LiLi  Li  Li   LiLLi
            Li    LiNi    LiLN  LiLi N
               NLi      Li      N
           Li Li   LLi Li  LiLiLi    Li
             LiLi N  Li LiN   LiLiN
                 Li N    Li  N   Li  N
            Li Li LiLi  LiLiLi  LiLi
           Li  N   Li   N  Li   N
              Li    Li Li    LiLi    Li
             LiLi N  Li LiN   LiLiN
                 Li N    Li  N   Li  N
               Li Li    LiLi    LiLi

[...]

            Li      Li   Li  Li
               N   Li   N      Li
           Li Li     Li     Li
             Li   N   LiLiN   Li  N
                LLi      Li     Li
            Li  Lii Ni    LiLN  LiLi N
               N      LLi       N
           Li Li   LLi     LiLiLi    Li
             Li   N     LiN       N
               LiLi  Li  Li   LiLLi
            Li    LiNi    LiLN  LiLi N
               NLi      Li      N
           Li Li   LLi Li  LiLiLi    Li
             LiLi N  Li LiN   LiLiN
                 Li N    Li  N   Li  N
            Li Li LiLi  LiLiLi  LiLi
           Li  N   Li   N  Li   N
              Li    Li Li    LiLi    Li
             LiLi N  Li LiN   LiLiN
                 Li N    Li  N   Li  N
               Li Li    LiLi    LiLi

[...]

            Li      Li   Li  Li
               N   Li   N      Li
           Li Li     Li   N Li
             Li   N   LiLi    LiLiN
                LLi      Li
            Li  Lii Ni    LiLN  LiLi N
               N      LLi       N
           Li Li   LLi     LiLiLi    Li
             Li   N     LiN       N
               LiLi  Li  Li   LiLLi
            Li    LiNi    LiLN  LiLi N
               NLi      Li      N
           Li Li   LLi Li  LiLiLi    Li
             LiLi N  Li LiN   LiLiN
                 Li N    Li  N   Li  N
            Li Li LiLi  LiLiLi  LiLi
           Li  N   Li   N  Li   N
              Li    Li Li    LiLi    Li
             LiLi N  Li LiN   LiLiN
                 Li N    Li  N   Li  N
               Li Li    LiLi    LiLi

[...]

            Li      Li   Li  Li
               N   Li   N      Li
           Li Li     Li   N Li
             Li   N   LiLi    LiLiN
                LLi      Li
            Li  Lii Ni    LiLN  LiLi N
               N      LLi       N
           Li Li   LLi     LiLiLi    Li
             Li   N     LiN       N
               LiLi  Li  Li   LiLLi
            Li    LiNi    LiLN  LiLi N
               NLi      Li      N
           Li Li   LLi Li  LiLiLi    Li
             LiLi N  Li LiN   LiLiN
                 Li N    Li  N   Li  N
            Li Li LiLi  LiLiLi  LiLi
           Li  N   Li   N  Li   N
              Li    Li Li    LiLi    Li
             LiLi N  Li LiN   LiLiN
                 Li N    Li  N   Li  N
               Li Li    LiLi    LiLi

[...]

            Li      Li   Li  Li
               N   Li   N      Li
           Li Li     Li   N Li
             Li   N   LiLi    LiLiN
                LLi      Li
            Li  Lii Ni    LiLN  LiLi N
               N      LLi       N
           Li Li   LLi     LiLiLi    Li
                  N     LiN       N
             LiLiLi  Li  Li   LiLLi
            Li    LiNi    LiLN  LiLi N
               NLi      Li      N
           Li Li   LLi Li  LiLiLi    Li
             LiLi N  Li LiN   LiLiN
                 Li N    Li  N   Li  N
            Li Li LiLi  LiLiLi  LiLi
           Li  N   Li   N  Li   N
              Li    Li Li    LiLi    Li
             LiLi N  Li LiN   LiLiN
                 Li N    Li  N   Li  N
               Li Li    LiLi    LiLi

[...]

            Li      Li   Li  Li
               N   Li   N      Li
           Li Li     Li   N Li
             Li   N   LiLi    LiLiN
                LLi      Li
            Li  Lii Ni    LiLN  LiLi N
               N      LLi       N
           Li Li   LLi     LiLiLi    Li
                  N     LiN       N
             LiLiLi  Li  Li   LiLLi
            Li    LiNi    LiLN  LiLi N
               NLi      Li      N
           Li Li   LLi Li  LiLiLi    Li
             LiLi N  Li LiN   LiLiN
                 Li N    Li  N   Li  N
            Li Li LiLi  LiLiLi  LiLi
           Li  N   Li   N  Li   N
              Li    Li Li    LiLi    Li
             LiLi N  Li LiN   LiLiN
                 Li N    Li  N   Li  N
               Li Li    LiLi    LiLi

[...]

            Li      Li   Li  Li
               N   Li   N      Li
           Li Li     Li   N Li
             Li   N   LiLi    LiLiN
                LLi      Li
            Li  Lii Ni    LiLN  Liii N
               N      LLi       N
           Li Li   LLi     LiLiLi    Li
                  N     LiN       N
             LiLiLi  Li  Li   LiLLi
            Li    LiNi    LiLN  LiLi N
               NLi      Li      N
           Li Li   LLi Li  LiLiLi    Li
             LiLi N  Li LiN   LiLiN
                 Li N    Li  N   Li  N
            Li Li LiLi  LiLiLi  LiLi
           Li  N   Li   N  Li   N
              Li    Li Li    LiLi    Li
             LiLi N  Li LiN   LiLiN
                 Li N    Li  N   Li  N
               Li Li    LiLi    LiLi

[...]

Converged after 12 iterations.

Dipole moment: (-3.231768, 4.186986, 0.417038) |e|*Ang

Energy contributions relative to reference atoms: (reference = -75445.846558)

Kinetic:       +630.074958
Potential:     -463.558952
External:        +0.000000
XC:            -685.868054
Entropy (-ST):   -0.034505
Local:           -2.945669
Free energy:   -522.332222
Extrapolated:  -522.314970

Fermi level: -0.35268

Showing only first 2 kpts
 Kpt  Band  Eigenvalues  Occupancy
  0   142     -0.41346    0.21207
  0   143     -0.04279    0.00000
  0   144     -0.02110    0.00000
  0   145      0.17083    0.00000

  1   142     -0.45941    0.44232
  1   143     -0.43390    0.43692
  1   144     -0.34127    0.16050
  1   145     -0.14695    0.00002

No gap

Forces in eV/Ang:
  0 Li   -0.00471   -0.00238   -0.03573
  1 Li    0.00000    0.00002   -0.02835
  2 Li   -0.00002    0.00004   -0.02813
  3 Li    0.00004   -0.00001   -0.02846
  4 Li    0.00004   -0.00003   -0.02871
  5 Li   -0.00004    0.00006   -0.02876
  6 Li   -0.00001    0.00002   -0.02855
  7 Li    0.00002   -0.00003   -0.02821
  8 Li    0.00003   -0.00004   -0.02860
  9 Li   -0.00004   -0.00001   -0.02858
 10 Li    0.00004    0.00047   -0.01728
 11 Li   -0.00053    0.00012   -0.01658
 12 Li   -0.00036    0.00070   -0.01706
 13 Li    0.00006   -0.00023   -0.01678
 14 Li    0.00049   -0.00096   -0.01711
 15 Li   -0.00057    0.00004   -0.01663
 16 Li   -0.00008   -0.00071   -0.01713
 17 Li   -0.00074   -0.00106   -0.01735
 18 Li    0.00084   -0.00122   -0.01731
 19 Li   -0.00029    0.00085   -0.01703
 20 Li    0.00060    0.00004   -0.01755
 21 Li    0.00053    0.00035   -0.01691
 22 Li    0.00050    0.00010   -0.01695
 23 Li   -0.00147    0.00062   -0.01726
 24 Li    0.00015    0.00037   -0.01659
 25 Li    0.00066    0.00014   -0.01719
 26 Li   -0.00015    0.00020   -0.01678
 27 Li    0.00030    0.00018   -0.01693
 28 Li    0.00043   -0.00137   -0.04065
 29 Li   -0.00054   -0.00111   -0.04664
 30 Li   -0.00010    0.00012   -0.04090
 31 Li   -0.00046   -0.00030   -0.03544
 32 Li    0.00089    0.00016   -0.02902
 33 Li    0.00019    0.00011   -0.04123
 34 Li   -0.00057    0.00119   -0.04104
 35 Li    0.00009    0.00120   -0.02936
 36 Li    0.00005   -0.00019   -0.03431
 37 Li    0.00631   -0.00840    0.02363
 38 Li   -0.00660   -0.00235   -0.02647
 39 Li    0.00178   -0.01857    0.00080
 40 Li   -0.00271   -0.00922    0.00635
 41 Li    0.00778    0.02096    0.03653
 42 Li    0.00197    0.00365   -0.01029
 43 Li   -0.00474    0.00118   -0.01136
 44 Li    0.00862    0.01848    0.00032
 45 Li   -0.01661    0.00702    0.00357
 46 Li   -0.00192    0.00225    0.02395
 47 Li   -0.00984   -0.00317    0.03995
 48 Li   -0.00023   -0.00799    0.00671
 49 Li    0.00310    0.01048    0.00677
 50 Li    0.01492   -0.00559    0.01469
 51 Li   -0.00914   -0.00069   -0.03573
 52 Li   -0.00988   -0.00193    0.07715
 53 Li    0.01958   -0.00689    0.03240
 54 Li   -0.00124    0.00486    0.02666
 55 Li   -0.03349   -0.01549   -0.00605
 56 Li    0.00925    0.01787   -0.01382
 57 Li    0.01821    0.01961   -0.02546
 58 Li    0.01438    0.01776    0.04475
 59 Li   -0.02156   -0.00906   -0.00782
[...]
130 N    -0.03222   -0.01816   -0.02956
131 N     0.03849   -0.04994    0.01705
132 N     0.02501   -0.02989   -0.00145
133 N    -0.04261    0.05235    0.01827
134 N    -0.02287    0.02981    0.01685
135 N     0.02382    0.00907   -0.00162
136 N     0.00525   -0.00006   -0.00830
137 N    -0.00748   -0.00058    0.00722
138 N     0.00233   -0.04371   -0.03775
139 N     0.05698    0.05563    0.01592
140 N     0.03064   -0.03985   -0.01461
141 N    -0.00897   -0.01615   -0.03419
142 N     0.02603   -0.03651   -0.02242
143 N     0.00109   -0.00228   -0.01755
144 N    -0.04241   -0.05392    0.01075

System changes: positions

Initializing position-dependent things.

Density initialized from wave functions

            Li      Li   Li  Li
               N   Li   N      Li
           Li Li     Li   N Li
             Li   N   LiLi    LiLiN
                LLi      Li
            Li  Lii Ni    LiLN  Liii N
               N      LLi       N
           Li Li   LLi     LiLiLi    Li
                  N     LiN       N
             LiLiLi  Li  Li   LiLLi
            Li    LiNi    LiLN  LiLi N
               NLi      Li      N
           Li Li   LLi Li  LiLiLi    Li
             LiLi N  Li LiN   LiLiN
                 Li N    Li  N   Li  N
            Li Li LiLi  LiLiLi  LiLi
           Li  N   Li   N  Li   N
              Li    Li Li    LiLi    Li
             LiLi N  Li LiN   LiLiN
                 Li N    Li  N   Li  N
               Li Li    LiLi    LiLi

                    Li       Li      Li

Positions:
   0 Li     2.587380    5.460170   23.983687    ( 0.0000,  0.0000,  0.0000)
   1 Li     1.717695    0.991763    8.714294    ( 0.0000,  0.0000,  0.0000)
   2 Li     5.153197    0.991763    8.714294    ( 0.0000,  0.0000,  0.0000)
   3 Li     8.588596    0.991763    8.714294    ( 0.0000,  0.0000,  0.0000)
   4 Li    -0.000071    3.967140    8.714294    ( 0.0000,  0.0000,  0.0000)
   5 Li     3.435431    3.967140    8.714294    ( 0.0000,  0.0000,  0.0000)
   6 Li     6.870830    3.967140    8.714294    ( 0.0000,  0.0000,  0.0000)
   7 Li    -1.717786    6.942428    8.714294    ( 0.0000,  0.0000,  0.0000)
   8 Li     1.717717    6.942428    8.714294    ( 0.0000,  0.0000,  0.0000)
   9 Li     5.153115    6.942428    8.714294    ( 0.0000,  0.0000,  0.0000)
  10 Li     0.000000    0.000000   10.653504    ( 0.0000,  0.0000,  0.0000)
  11 Li     3.435502    0.000000   10.653504    ( 0.0000,  0.0000,  0.0000)
  12 Li     6.870901    0.000000   10.653504    ( 0.0000,  0.0000,  0.0000)
  13 Li    -0.000010    1.983525   10.653504    ( 0.0000,  0.0000,  0.0000)
  14 Li     3.435389    1.983525   10.653504    ( 0.0000,  0.0000,  0.0000)
  15 Li     6.870891    1.983525   10.653504    ( 0.0000,  0.0000,  0.0000)
  16 Li    -1.717766    2.975377   10.653504    ( 0.0000,  0.0000,  0.0000)
  17 Li     1.717736    2.975377   10.653504    ( 0.0000,  0.0000,  0.0000)
  18 Li     5.153135    2.975377   10.653504    ( 0.0000,  0.0000,  0.0000)
  19 Li    -1.717776    4.958903   10.653504    ( 0.0000,  0.0000,  0.0000)
  20 Li     1.717623    4.958903   10.653504    ( 0.0000,  0.0000,  0.0000)
  21 Li     5.153125    4.958903   10.653504    ( 0.0000,  0.0000,  0.0000)
  22 Li    -3.435480    5.950666   10.653504    ( 0.0000,  0.0000,  0.0000)
  23 Li     0.000022    5.950666   10.653504    ( 0.0000,  0.0000,  0.0000)
  24 Li     3.435421    5.950666   10.653504    ( 0.0000,  0.0000,  0.0000)
  25 Li    -3.435490    7.934191   10.653504    ( 0.0000,  0.0000,  0.0000)
  26 Li    -0.000091    7.934191   10.653504    ( 0.0000,  0.0000,  0.0000)
  27 Li     3.435411    7.934191   10.653504    ( 0.0000,  0.0000,  0.0000)
  28 Li     1.717695    0.991763   12.627088    ( 0.0000,  0.0000,  0.0000)
  29 Li     5.153197    0.991763   12.627088    ( 0.0000,  0.0000,  0.0000)
  30 Li     8.588596    0.991763   12.627088    ( 0.0000,  0.0000,  0.0000)
  31 Li    -0.000071    3.967140   12.627088    ( 0.0000,  0.0000,  0.0000)
  32 Li     3.435431    3.967140   12.627088    ( 0.0000,  0.0000,  0.0000)
  33 Li     6.870830    3.967140   12.627088    ( 0.0000,  0.0000,  0.0000)
  34 Li    -1.717786    6.942428   12.627088    ( 0.0000,  0.0000,  0.0000)
  35 Li     1.717717    6.942428   12.627088    ( 0.0000,  0.0000,  0.0000)
  36 Li     5.153115    6.942428   12.627088    ( 0.0000,  0.0000,  0.0000)
  37 Li     0.000000    0.000000   14.576373    ( 0.0000,  0.0000,  0.0000)
  38 Li     3.435502    0.000000   14.576373    ( 0.0000,  0.0000,  0.0000)
  39 Li     6.870901    0.000000   14.576373    ( 0.0000,  0.0000,  0.0000)
  40 Li    -0.000010    1.983525   14.576373    ( 0.0000,  0.0000,  0.0000)
  41 Li     3.435389    1.983525   14.576373    ( 0.0000,  0.0000,  0.0000)
  42 Li     6.870891    1.983525   14.576373    ( 0.0000,  0.0000,  0.0000)
  43 Li    -1.717766    2.975377   14.576373    ( 0.0000,  0.0000,  0.0000)
  44 Li     1.717736    2.975377   14.576373    ( 0.0000,  0.0000,  0.0000)
  45 Li     5.153135    2.975377   14.576373    ( 0.0000,  0.0000,  0.0000)
  46 Li    -1.717776    4.958903   14.576373    ( 0.0000,  0.0000,  0.0000)
  47 Li     1.717623    4.958903   14.576373    ( 0.0000,  0.0000,  0.0000)
  48 Li     5.153125    4.958903   14.576373    ( 0.0000,  0.0000,  0.0000)
  49 Li    -3.435480    5.950666   14.576373    ( 0.0000,  0.0000,  0.0000)
  50 Li     0.000022    5.950666   14.576373    ( 0.0000,  0.0000,  0.0000)
  51 Li     3.435421    5.950666   14.576373    ( 0.0000,  0.0000,  0.0000)
  52 Li    -3.435490    7.934191   14.576373    ( 0.0000,  0.0000,  0.0000)
  53 Li    -0.000091    7.934191   14.576373    ( 0.0000,  0.0000,  0.0000)
  54 Li     3.435411    7.934191   14.576373    ( 0.0000,  0.0000,  0.0000)
  55 Li     1.730747    1.037631   16.520953    ( 0.0000,  0.0000,  0.0000)
  56 Li     5.163826    0.997987   16.482801    ( 0.0000,  0.0000,  0.0000)
  57 Li     8.574065    1.005866   16.524148    ( 0.0000,  0.0000,  0.0000)
  58 Li    -0.016096    3.942665   16.580779    ( 0.0000,  0.0000,  0.0000)
  59 Li     3.428555    4.009451   16.631620    ( 0.0000,  0.0000,  0.0000)
[...]
 130 N     -0.026441    3.964235   18.594250    ( 0.0000,  0.0000,  0.0000)
 131 N      3.440943    3.955604   18.702181    ( 0.0000,  0.0000,  0.0000)
 132 N      6.860169    3.980345   18.459758    ( 0.0000,  0.0000,  0.0000)
 133 N     -1.696597    6.931286   18.430164    ( 0.0000,  0.0000,  0.0000)
 134 N      1.711900    6.956826   18.656722    ( 0.0000,  0.0000,  0.0000)
 135 N      5.147406    6.952985   18.547229    ( 0.0000,  0.0000,  0.0000)
 136 N      1.719616    1.021149   22.332604    ( 0.0000,  0.0000,  0.0000)
 137 N      5.157666    0.998512   22.196473    ( 0.0000,  0.0000,  0.0000)
 138 N      8.595856    0.965504   22.362758    ( 0.0000,  0.0000,  0.0000)
 139 N     -0.070258    3.940037   22.588463    ( 0.0000,  0.0000,  0.0000)
 140 N      3.393193    4.021542   22.759213    ( 0.0000,  0.0000,  0.0000)
 141 N      6.851326    3.977701   22.365321    ( 0.0000,  0.0000,  0.0000)
 142 N     -1.708648    6.929721   22.293460    ( 0.0000,  0.0000,  0.0000)
 143 N      1.793637    6.831341   22.686664    ( 0.0000,  0.0000,  0.0000)
 144 N      5.207818    6.959526   22.475377    ( 0.0000,  0.0000,  0.0000)

Unit cell:
           periodic     x           y           z      points  spacing
  1. axis:    yes   10.306300    0.000000    0.000000    54     0.1653
  2. axis:    yes   -5.153194    8.925954    0.000000    54     0.1653
  3. axis:    yes    0.000000    0.000000   29.633400   160     0.1852

  Lengths:  10.306300  10.306700  29.633400
  Angles:   90.000000  90.000000 119.999001

Effective grid spacing dv^(1/3) = 0.1801

                     log10-error:    total        iterations:
           time      wfs    density  energy       fermi  poisson
iter:   1  08:06:15  -3.61         -522.321092    2